LAMMPS (29 Oct 2020)
#~~~~~~~~~~~~~~~~~~~~~~~~
# one SCE cell randomly initialized
# test sce atom type
# test sce ext potential
#~~~~~~~~~~~~~~~~~~~~~~~~

#+++++++++++++++++++
# INITIALIZATION
#+++++++++++++++++++
# units in um, ug, s
units      cell
dimension  3
newton     off
processors * * *
boundary   m m m
atom_style semEM
compute_modify thermo_temp dynamic yes
atom_modify map yes

#+++++++++++++++++++
# PAIRWISE NEIGHBOUR LIST
#+++++++++++++++++++
neighbor      0.45235 bin
neigh_modify  delay 5

read_restart cell_mult_nuc_1.restart
Reading restart file ...
  restart file = 29 Oct 2020, LAMMPS = 29 Oct 2020
WARNING: Restart file used different # of processors: 4 vs. 1 (../read_restart.cpp:697)
  restoring atom style semEM from restart
  orthogonal box = (-100.00000 -100.00000 -40.000000) to (100.00000 100.00000 40.000000)
  1 by 1 by 1 MPI processor grid
  restoring pair style hybrid from restart
  3500 atoms
  read_restart CPU = 0.005 seconds
#create_atoms 4 single 0 0 20
set type 3 cellpart 4
Setting atom values ...
  2500 settings made for cellpart
set type 4 cellpart 5
Setting atom values ...
  0 settings made for cellpart
variable    cellelem atom "type == 1 || type == 2"
group cell_group dynamic all var cellelem
dynamic group cell_group defined
group cyto type 1
900 atoms in group cyto
group nucleus type 2
100 atoms in group nucleus
group ecm_glass type 3 4
2500 atoms in group ecm_glass
region bottom_block block -50 50 -50 50 -11 -9.5 units box
group bottom region bottom_block
481 atoms in group bottom

#+++++++++++++++++++
# DEFINE POTENTIALS
#+++++++++++++++++++
# SEM potential with global cutoff 2.5*r_eq
pair_style    hybrid semEMp 4.522520848255137 semNucM 4.522520848255137 lj/cut 9.522520848255137
pair_coeff    1 1 semEMp 114014.4148165376 45605.76592661504 2 2 2 2 1.809008339302055 5.527890492676315 4.522520848255137
pair_coeff    1 2 semNucM 171021.6222248064 2 2 1.809008339302055 5.527890492676315 0 4.522520848255137
pair_coeff    2 2 semEMp 425477.8367841409 0.0 2 2 2 2 1.809008339302055 5.527890492676315 4.522520848255137
pair_coeff    1 3 lj/cut 60000 5 15
pair_coeff    2 3 none
pair_coeff    3 3 none
pair_coeff    1 4 lj/cut 50000 5 5
pair_coeff    2 4 none
pair_coeff    3 4 none
pair_coeff    4 4 none
pair_coeff    1 5 none
pair_coeff    2 5 none
pair_coeff    3 5 none
pair_coeff    4 5 none
pair_coeff    5 5 none
pair_coeff    1 6 none
pair_coeff    2 6 none
pair_coeff    3 6 none
pair_coeff    4 6 none
pair_coeff    5 6 none
pair_coeff    6 6 none
timestep 0.001
compute strs cell_group stress/atom NULL
variable vol_stress atom (c_strs[1]+c_strs[2]+c_strs[3])/3
#+++++++++++++++++++
# DEFINE FIXES
#+++++++++++++++++++
# Do BD using Langevin fix for random fluctuations
# args = T T tau rseed
fix  1 cyto langevin 57943.7 57943.7 6.221784385976299e-11 60253
# BD requires same tau as for Langevin
fix  2 cyto bd 6.221784385976299e-11
fix  3 nucleus langevin 57943.7 57943.7 1.5494800964594704e-11 91830
fix  4 nucleus bd 1.5494800964594704e-11
#thermo_style custom step temp pres
thermo 1000
compute nuc_centreofmass nucleus com
compute perim bottom coord/atom cutoff 2.0
thermo_style custom step temp press etotal pe ke c_nuc_centreofmass[*]
dump 1 cell_group custom 1000 dump.atom_info id type x y z c_perim
dump 2 cell_group xyzSemEM 1000 cell.xyz
run 0
Unused restart file global fix info:
  fix style: move, fix ID: peri_velocity
Unused restart file peratom fix info:
  fix style: move, fix ID: peri_velocity
Neighbor list info ...
  update every 1 steps, delay 5 steps, check yes
  max neighbors/atom: 2000, page size: 100000
  master list distance cutoff = 15.45235
  ghost atom cutoff = 15.45235
  binsize = 7.726175, bins = 26 26 11
  5 neighbor lists, perpetual/occasional/extra = 4 1 0
  (1) pair semEMp, perpetual, skip from (5)
      attributes: half, newton off
      pair build: skip
      stencil: none
      bin: none
  (2) pair semNucM, perpetual, skip from (5)
      attributes: half, newton off
      pair build: skip
      stencil: none
      bin: none
  (3) pair lj/cut, perpetual, skip from (5)
      attributes: half, newton off
      pair build: skip
      stencil: none
      bin: none
  (4) compute coord/atom, occasional
      attributes: full, newton off
      pair build: full/bin/atomonly
      stencil: full/bin/3d
      bin: standard
  (5) neighbor class addition, perpetual
      attributes: half, newton off
      pair build: half/bin/newtoff
      stencil: half/bin/3d/newtoff
      bin: standard
Per MPI rank memory allocation (min/avg/max) = 13.45 | 13.45 | 13.45 Mbytes
Step Temp Press TotEng PotEng KinEng c_nuc_centreofmass[1] c_nuc_centreofmass[2] c_nuc_centreofmass[3] 
  200000 0.0025441698   -207.44614 -1.7289814e+09 -1.7289814e+09   0.18435928   0.87116706   -4.5833752   -7.0217976 
Loop time of 0 on 1 procs for 0 steps with 3500 atoms

0.0% CPU use with 1 MPI tasks x no OpenMP threads

MPI task timing breakdown:
Section |  min time  |  avg time  |  max time  |%varavg| %total
---------------------------------------------------------------
Pair    | 0          | 0          | 0          |   0.0 |  0.00
Neigh   | 0          | 0          | 0          |   0.0 |  0.00
Comm    | 0          | 0          | 0          |   0.0 |  0.00
Output  | 0          | 0          | 0          |   0.0 |  0.00
Modify  | 0          | 0          | 0          |   0.0 |  0.00
Other   |            | 0          |            |       |  0.00

Nlocal:        3500.00 ave        3500 max        3500 min
Histogram: 1 0 0 0 0 0 0 0 0 0
Nghost:        0.00000 ave           0 max           0 min
Histogram: 1 0 0 0 0 0 0 0 0 0
Neighs:        25908.0 ave       25908 max       25908 min
Histogram: 1 0 0 0 0 0 0 0 0 0
FullNghs:     351624.0 ave      351624 max      351624 min
Histogram: 1 0 0 0 0 0 0 0 0 0

Total # of neighbors = 351624
Ave neighs/atom = 100.46400
Neighbor list builds = 0
Dangerous builds = 0
variable peri_atom atom "c_perim>0 && c_perim<8"
group peri_atom_grp variable peri_atom
90 atoms in group peri_atom_grp
fix peri_velocity peri_atom_grp move linear 0 0 0
run 100000
WARNING: One or more atoms are time integrated more than once (../modify.cpp:285)
Neighbor list info ...
  update every 1 steps, delay 5 steps, check yes
  max neighbors/atom: 2000, page size: 100000
  master list distance cutoff = 15.45235
  ghost atom cutoff = 15.45235
  binsize = 7.726175, bins = 26 26 11
  5 neighbor lists, perpetual/occasional/extra = 4 1 0
  (1) pair semEMp, perpetual, skip from (5)
      attributes: half, newton off
      pair build: skip
      stencil: none
      bin: none
  (2) pair semNucM, perpetual, skip from (5)
      attributes: half, newton off
      pair build: skip
      stencil: none
      bin: none
  (3) pair lj/cut, perpetual, skip from (5)
      attributes: half, newton off
      pair build: skip
      stencil: none
      bin: none
  (4) compute coord/atom, occasional
      attributes: full, newton off
      pair build: full/bin/atomonly
      stencil: full/bin/3d
      bin: standard
  (5) neighbor class addition, perpetual
      attributes: half, newton off
      pair build: half/bin/newtoff
      stencil: half/bin/3d/newtoff
      bin: standard
Per MPI rank memory allocation (min/avg/max) = 12.68 | 12.68 | 12.68 Mbytes
Step Temp Press TotEng PotEng KinEng c_nuc_centreofmass[1] c_nuc_centreofmass[2] c_nuc_centreofmass[3] 
  200000 0.0026325132   -207.44614 -1.7289814e+09 -1.7289814e+09   0.19076095   0.87116706   -4.5833752   -7.0217976 
  201000 0.0019427028   -197.86735 -1.7411552e+09 -1.7411552e+09   0.14077492   0.85261406   -4.5642923   -7.0861548 
  202000 0.0020169838   -196.80059 -1.7411809e+09 -1.7411809e+09   0.14615758   0.83856815   -4.5497298   -7.0993688 
  203000 0.0020138622   -196.87893 -1.7412184e+09 -1.7412184e+09   0.14593138   0.82473853    -4.524501   -7.1017082 
  204000 0.0020500607   -197.02855 -1.7411774e+09 -1.7411774e+09   0.14855444   0.82089812   -4.5223278   -7.1048342 
  205000  0.001961416   -197.79714 -1.7413027e+09 -1.7413027e+09   0.14213094   0.80134405   -4.5057005   -7.1061258 
  206000 0.0019857609   -196.97633 -1.7412774e+09 -1.7412774e+09   0.14389506   0.79564405   -4.4920664    -7.098453 
  207000 0.0020082325   -195.93684 -1.741258e+09 -1.741258e+09   0.14552343   0.78820926   -4.4921033   -7.1008002 
  208000 0.0020359971   -195.22815 -1.7412855e+09 -1.7412855e+09   0.14753535    0.7631559   -4.4873401   -7.1017213 
  209000 0.0020173391   -196.78365 -1.7413037e+09 -1.7413037e+09   0.14618333   0.75711962   -4.4794217   -7.0958129 
  210000 0.0020599651   -195.08016 -1.7416529e+09 -1.7416529e+09   0.14927215   0.75335343    -4.466924   -7.1062979 
  211000 0.0020369695   -194.13565 -1.7424328e+09 -1.7424328e+09   0.14760581   0.74668124   -4.4554408   -7.1082466 
  212000 0.0020627354   -193.07586 -1.7427283e+09 -1.7427283e+09   0.14947289   0.75899244   -4.4478893   -7.1119763 
  213000 0.0020076038   -193.82583 -1.7428654e+09 -1.7428654e+09   0.14547787   0.75355073   -4.4235442   -7.1130099 
  214000 0.0020445085   -193.84724 -1.7428809e+09 -1.7428809e+09   0.14815211   0.75658184   -4.4201102   -7.1093049 
  215000 0.0020037408   -194.28103 -1.7429202e+09 -1.7429202e+09   0.14519795   0.73268233    -4.417443   -7.1121677 
  216000  0.002024446   -193.37218 -1.7428964e+09 -1.7428964e+09   0.14669831   0.71090258   -4.4036763   -7.1103096 
  217000 0.0019852997   -194.06608 -1.7429529e+09 -1.7429529e+09   0.14386164   0.69962857   -4.3960372   -7.1116401 
  218000 0.0020452771   -193.55039 -1.742943e+09 -1.742943e+09   0.14820781   0.69515312   -4.3998298   -7.1110834 
  219000  0.002031626   -193.74195 -1.7429293e+09 -1.7429293e+09    0.1472186   0.67963107    -4.400959   -7.1079392 
  220000 0.0020120877   -194.51923 -1.7429602e+09 -1.7429602e+09   0.14580279   0.67989853   -4.3979362   -7.1065208 
  221000 0.0020236462   -192.67179 -1.7429405e+09 -1.7429405e+09   0.14664036   0.67944635   -4.3875134   -7.1078649 
  222000 0.0019573573   -192.55675 -1.7429305e+09 -1.7429305e+09   0.14183684   0.68163749   -4.3860733   -7.1155774 
  223000 0.0020493503   -193.56613 -1.7429221e+09 -1.7429221e+09   0.14850297    0.6879406    -4.385408   -7.1170035 
  224000 0.0019784525   -193.93931 -1.7429604e+09 -1.7429604e+09   0.14336547   0.69281612   -4.3817187   -7.1230531 
  225000 0.0020440105   -193.37933 -1.7429377e+09 -1.7429377e+09   0.14811602   0.68260489   -4.3708319   -7.1181222 
  226000 0.0019889218   -192.98914 -1.7429668e+09 -1.7429668e+09   0.14412411   0.68538921   -4.3636719   -7.1226296 
  227000 0.0020484611   -192.89628 -1.7429765e+09 -1.7429765e+09   0.14843853   0.67719146   -4.3602209   -7.1072797 
  228000 0.0019547738   -194.22602 -1.7429596e+09 -1.7429596e+09   0.14164963   0.67721237   -4.3573662   -7.1074077 
  229000 0.0020283891   -194.00272 -1.7430005e+09 -1.7430005e+09   0.14698404   0.66704848   -4.3516672   -7.1100712 
  230000  0.001983052   -193.22971 -1.7430856e+09 -1.7430856e+09   0.14369877    0.6657848   -4.3325232   -7.1094839 
  231000 0.0020691229    -194.0394 -1.7431767e+09 -1.7431767e+09   0.14993575   0.69657345   -4.3169172   -7.1096031 
  232000  0.001988107    -192.5514 -1.7433093e+09 -1.7433093e+09   0.14406507   0.69824706   -4.3153315   -7.1143671 
  233000 0.0020333737   -192.63695 -1.7433185e+09 -1.7433185e+09   0.14734524   0.69634496   -4.3217703   -7.1097589 
  234000 0.0020131421   -193.23718 -1.7433843e+09 -1.7433843e+09   0.14587919   0.71080236   -4.3065118   -7.1087901 
  235000  0.001979723   -194.44684 -1.743344e+09 -1.743344e+09   0.14345753   0.72156872   -4.3191982   -7.1029163 
  236000 0.0020180424   -193.56188 -1.7433814e+09 -1.7433814e+09   0.14623428   0.72667427   -4.3226394   -7.0965935 
  237000 0.0020663345   -193.42654 -1.743338e+09 -1.743338e+09    0.1497337   0.73129432   -4.3304192   -7.1033912 
  238000 0.0020446303   -193.84739 -1.7434255e+09 -1.7434255e+09   0.14816094   0.72901879   -4.3373154   -7.1034229 
  239000  0.001970178   -192.67785 -1.7433458e+09 -1.7433458e+09   0.14276587    0.7260204   -4.3393691   -7.1093676 
  240000 0.0020301425    -193.7614 -1.7433814e+09 -1.7433814e+09    0.1471111   0.72438466   -4.3401989   -7.1041873 
  241000 0.0020099254   -194.29794 -1.743304e+09 -1.743304e+09    0.1456461   0.73572583   -4.3239646    -7.107891 
  242000 0.0020207479   -192.87679 -1.743319e+09 -1.743319e+09   0.14643034   0.74655548   -4.3281125   -7.1048301 
  243000 0.0020077334   -194.01716 -1.7433815e+09 -1.7433815e+09   0.14548726   0.75275501    -4.333973   -7.1008891 
  244000 0.0019676318   -193.20502 -1.7433513e+09 -1.7433513e+09   0.14258136   0.74319668   -4.3325929   -7.1138897 
  245000 0.0020162612   -193.87041 -1.7433671e+09 -1.7433671e+09   0.14610522   0.73382819   -4.3254345   -7.1065666 
  246000 0.0019773075   -192.88224 -1.7434396e+09 -1.7434396e+09    0.1432825   0.72905498   -4.3327284   -7.1105518 
  247000 0.0019685965   -192.70247 -1.7433828e+09 -1.7433828e+09   0.14265126   0.72561913    -4.334444   -7.1076899 
  248000 0.0020563402   -193.40256 -1.7433827e+09 -1.7433827e+09   0.14900948   0.72417894   -4.3379008   -7.1037507 
  249000 0.0020202028   -194.56715 -1.7433727e+09 -1.7433727e+09   0.14639084   0.73113035   -4.3449227   -7.1006399 
  250000 0.0020503238   -193.24414 -1.743325e+09 -1.743325e+09   0.14857351   0.73615192   -4.3463925   -7.1053845 
  251000 0.0019739251   -194.37207 -1.7434083e+09 -1.7434083e+09    0.1430374   0.73223671   -4.3630359   -7.1061119 
  252000 0.0020819461   -193.26403 -1.7433718e+09 -1.7433718e+09   0.15086497   0.72493571   -4.3470534   -7.1079674 
  253000 0.0020187968   -194.04991 -1.7434072e+09 -1.7434072e+09   0.14628895   0.71867107    -4.346689   -7.1101276 
  254000 0.0020448019   -193.01148 -1.7433406e+09 -1.7433406e+09   0.14817337   0.70949888   -4.3309018   -7.1040584 
  255000  0.002032637   -193.46417 -1.7433246e+09 -1.7433246e+09   0.14729186   0.70726208   -4.3334753   -7.1101501 
  256000 0.0019825007   -194.18271 -1.7433977e+09 -1.7433977e+09   0.14365881   0.72017339   -4.3335189   -7.1115642 
  257000 0.0020210717    -194.1776 -1.7433941e+09 -1.7433941e+09    0.1464538   0.71930318   -4.3388416   -7.1090472 
  258000 0.0020340343     -193.718 -1.7433927e+09 -1.7433927e+09   0.14739311   0.71163733   -4.3240549   -7.1053485 
  259000 0.0019757858   -193.35592 -1.7433845e+09 -1.7433845e+09   0.14317223   0.71853653   -4.3331449   -7.1053206 
  260000 0.0020484905   -195.11857 -1.7433995e+09 -1.7433995e+09   0.14844066   0.71958839   -4.3415602   -7.1083209 
  261000 0.0020866641   -192.46243 -1.7434211e+09 -1.7434211e+09   0.15120685   0.72704465   -4.3430822   -7.1114363 
  262000 0.0019859001   -192.95073 -1.7434057e+09 -1.7434057e+09   0.14390514    0.7287448   -4.3488852   -7.1148855 
  263000 0.0020641502     -194.294 -1.7434174e+09 -1.7434174e+09   0.14957541    0.7302023   -4.3419022   -7.1061527 
  264000 0.0020677104   -192.39849 -1.7433409e+09 -1.7433409e+09    0.1498334   0.72632593   -4.3404176   -7.1099416 
  265000 0.0020048978   -193.57177 -1.7433776e+09 -1.7433776e+09   0.14528178   0.73549913    -4.332868   -7.1020762 
  266000 0.0020574928   -194.61761 -1.7433357e+09 -1.7433357e+09     0.149093   0.73535194   -4.3243572   -7.0966317 
  267000 0.0020149089   -194.29529 -1.7434065e+09 -1.7434065e+09   0.14600722   0.73133785    -4.313118   -7.1084006 
  268000  0.002016128   -193.14546 -1.743305e+09 -1.743305e+09   0.14609557   0.74595131   -4.3297056   -7.1115729 
  269000 0.0020126825   -193.92084 -1.7433648e+09 -1.7433648e+09   0.14584589   0.73750261   -4.3255617   -7.1004508 
  270000 0.0019923135   -193.95639 -1.7433734e+09 -1.7433734e+09   0.14436988   0.73961675   -4.3261319   -7.1033145 
  271000 0.0020518888    -192.8097 -1.7433983e+09 -1.7433983e+09   0.14868691   0.73609159   -4.3296487   -7.1096105 
  272000   0.00208836   -193.76532 -1.7433361e+09 -1.7433361e+09   0.15132974   0.75124177   -4.3362049   -7.1063385 
  273000 0.0019612153   -193.28956 -1.7433716e+09 -1.7433716e+09    0.1421164   0.73837155   -4.3321934   -7.1027202 
  274000 0.0019797556   -192.46658 -1.7434327e+09 -1.7434327e+09   0.14345989   0.75578262    -4.333044   -7.1096409 
  275000 0.0020292819   -193.33061 -1.7433785e+09 -1.7433785e+09   0.14704874   0.76483131   -4.3162083   -7.1152557 
  276000 0.0020433058   -193.51538 -1.7434184e+09 -1.7434184e+09   0.14806496   0.76806776   -4.3236914   -7.1034862 
  277000   0.00197866   -192.91143 -1.7433952e+09 -1.7433952e+09   0.14338051   0.77142691   -4.3312883   -7.1150927 
  278000 0.0020346884   -192.03254 -1.7433644e+09 -1.7433644e+09   0.14744052   0.75951732   -4.3343766    -7.109263 
  279000 0.0020424775   -193.24836 -1.7433555e+09 -1.7433555e+09   0.14800494   0.76118122   -4.3216343   -7.1099137 
  280000  0.002026159   -193.41145 -1.7433979e+09 -1.7433979e+09   0.14682244   0.74602985   -4.3088286   -7.1145404 
  281000 0.0020370834   -194.30188 -1.7433995e+09 -1.7433995e+09   0.14761406   0.74173738    -4.320963   -7.1065387 
  282000 0.0020599541   -193.88994 -1.7433768e+09 -1.7433768e+09   0.14927135    0.7441832   -4.3281859   -7.1057925 
  283000 0.0019766759   -192.78626 -1.7433429e+09 -1.7433429e+09   0.14323673   0.75335391   -4.3314437   -7.1053012 
  284000  0.001994263   -192.58525 -1.7433794e+09 -1.7433794e+09   0.14451115   0.75417056   -4.3267336   -7.1121907 
  285000 0.0020429429   -194.84229 -1.743398e+09 -1.743398e+09   0.14803866   0.74980295   -4.3323216   -7.1114403 
  286000 0.0020487869   -193.32271 -1.7434008e+09 -1.7434008e+09   0.14846214   0.75031502    -4.317479   -7.1099219 
  287000 0.0020297011   -193.05919 -1.7433769e+09 -1.7433769e+09   0.14707911    0.7445062   -4.3141606   -7.1059258 
  288000 0.0020015323   -192.69723 -1.7433342e+09 -1.7433342e+09   0.14503791   0.73585069   -4.3203228   -7.1052585 
  289000 0.0020836052   -194.42312 -1.7433722e+09 -1.7433722e+09   0.15098519   0.72532676   -4.3309288   -7.0923077 
  290000 0.0020304781   -193.76042 -1.7433219e+09 -1.7433219e+09   0.14713542   0.72125661   -4.3376815   -7.1084279 
  291000 0.0020297831   -193.44485 -1.7433932e+09 -1.7433932e+09   0.14708506   0.71204517   -4.3359932   -7.1113996 
  292000 0.0020500852   -192.88733 -1.7433706e+09 -1.7433706e+09   0.14855622   0.72855745   -4.3304563   -7.1144348 
  293000 0.0019568326   -192.92133 -1.7433289e+09 -1.7433289e+09   0.14179882    0.7218195   -4.3308782   -7.1181451 
  294000 0.0020544809   -194.23457 -1.7433338e+09 -1.7433338e+09   0.14887475   0.72430795   -4.3373392   -7.1039131 
  295000 0.0020409406   -193.12963 -1.7433736e+09 -1.7433736e+09   0.14789357   0.71920399   -4.3464611   -7.1093694 
  296000 0.0020186957    -194.6481 -1.7433533e+09 -1.7433533e+09   0.14628163     0.717304   -4.3448015   -7.1038704 
  297000  0.002005533   -193.82821 -1.7433613e+09 -1.7433613e+09   0.14532782   0.71029632   -4.3373581   -7.1084677 
  298000 0.0020049252   -193.46688 -1.7434091e+09 -1.7434091e+09   0.14528377   0.70754266   -4.3579243   -7.1124209 
  299000 0.0020298071   -193.37265 -1.743393e+09 -1.743393e+09    0.1470868   0.71848271   -4.3504338   -7.1166597 
  300000 0.0020608849   -193.54078 -1.7433863e+09 -1.7433863e+09    0.1493388   0.70918631   -4.3321516   -7.1091868 
Loop time of 188.467 on 1 procs for 100000 steps with 3500 atoms

99.9% CPU use with 1 MPI tasks x no OpenMP threads

MPI task timing breakdown:
Section |  min time  |  avg time  |  max time  |%varavg| %total
---------------------------------------------------------------
Pair    | 172.48     | 172.48     | 172.48     |   0.0 | 91.52
Neigh   | 0.4869     | 0.4869     | 0.4869     |   0.0 |  0.26
Comm    | 0.010576   | 0.010576   | 0.010576   |   0.0 |  0.01
Output  | 0.59326    | 0.59326    | 0.59326    |   0.0 |  0.31
Modify  | 14.033     | 14.033     | 14.033     |   0.0 |  7.45
Other   |            | 0.8625     |            |       |  0.46

Nlocal:        3500.00 ave        3500 max        3500 min
Histogram: 1 0 0 0 0 0 0 0 0 0
Nghost:        0.00000 ave           0 max           0 min
Histogram: 1 0 0 0 0 0 0 0 0 0
Neighs:        25826.0 ave       25826 max       25826 min
Histogram: 1 0 0 0 0 0 0 0 0 0
FullNghs:     351980.0 ave      351980 max      351980 min
Histogram: 1 0 0 0 0 0 0 0 0 0

Total # of neighbors = 351980
Ave neighs/atom = 100.56571
Neighbor list builds = 81
Dangerous builds = 0
undump 1
undump 2
variable nuc_cmx equal $(c_nuc_centreofmass[1])
variable nuc_cmx equal 0.70918631178490210143
variable nuc_cmy equal $(c_nuc_centreofmass[2])
variable nuc_cmy equal -4.3321515905210619124
variable z_ind equal 10
variable x equal vdisplace(v_z_ind,-1)
fix  indn all indent 500000 sphere v_nuc_cmx v_nuc_cmy v_x 5 side out units box

thermo_style custom step temp f_indn[1] f_indn[2] f_indn[3] v_nuc_cmx c_nuc_centreofmass[1] v_nuc_cmy c_nuc_centreofmass[2]
thermo 100
dump 1 cell_group xyzSemEM 100 cell.xyz
dump 2 ecm_glass xyzSemEM 10000 ecm_glass.xyz
#dump 3 cell_group custom 100000 dump.atom_info id type x y z vx vy vz
#dump 3 cell_group custom 100 all_stress.xyz id type x y z c_strs[*] v_vol_stress
dump 3 peri_atom_grp xyzSemEM 100 peri_particles.xyz
variable ts_load equal 14000
variable z_ind_low equal $(v_z_ind-v_ts_load*dt)
variable z_ind_low equal -4
run $(v_ts_load)
run 14000
WARNING: One or more atoms are time integrated more than once (../modify.cpp:285)
Neighbor list info ...
  update every 1 steps, delay 5 steps, check yes
  max neighbors/atom: 2000, page size: 100000
  master list distance cutoff = 15.45235
  ghost atom cutoff = 15.45235
  binsize = 7.726175, bins = 26 26 11
  5 neighbor lists, perpetual/occasional/extra = 4 1 0
  (1) pair semEMp, perpetual, skip from (5)
      attributes: half, newton off
      pair build: skip
      stencil: none
      bin: none
  (2) pair semNucM, perpetual, skip from (5)
      attributes: half, newton off
      pair build: skip
      stencil: none
      bin: none
  (3) pair lj/cut, perpetual, skip from (5)
      attributes: half, newton off
      pair build: skip
      stencil: none
      bin: none
  (4) compute coord/atom, occasional
      attributes: full, newton off
      pair build: full/bin/atomonly
      stencil: full/bin/3d
      bin: standard
  (5) neighbor class addition, perpetual
      attributes: half, newton off
      pair build: half/bin/newtoff
      stencil: half/bin/3d/newtoff
      bin: standard
Per MPI rank memory allocation (min/avg/max) = 11.73 | 11.73 | 11.73 Mbytes
Step Temp f_indn[1] f_indn[2] f_indn[3] v_nuc_cmx c_nuc_centreofmass[1] v_nuc_cmy c_nuc_centreofmass[2] 
  300000  0.002040789            0            0            0   0.70918631   0.70918631   -4.3321516   -4.3321516 
  300100 0.0020027276            0            0            0   0.70918631   0.70803225   -4.3321516   -4.3333589 
  300200 0.0020851916            0            0            0   0.70918631   0.70930978   -4.3321516   -4.3330107 
  300300 0.0020288249            0            0            0   0.70918631   0.70951087   -4.3321516   -4.3349867 
  300400  0.001981503            0            0            0   0.70918631    0.7083015   -4.3321516   -4.3407199 
  300500 0.0020724277            0            0            0   0.70918631   0.71075608   -4.3321516   -4.3416547 
  300600 0.0019684726            0            0            0   0.70918631    0.7113443   -4.3321516   -4.3457364 
  300700 0.0020069811            0            0            0   0.70918631   0.71208884   -4.3321516   -4.3467218 
  300800 0.0020452718            0            0            0   0.70918631   0.71309173   -4.3321516   -4.3449949 
  300900 0.0020004301            0            0            0   0.70918631   0.71095045   -4.3321516   -4.3419479 
  301000 0.0020232745            0            0            0   0.70918631   0.71016385   -4.3321516   -4.3357938 
  301100  0.001996119            0            0            0   0.70918631   0.71327928   -4.3321516   -4.3379074 
  301200 0.0020446473            0            0            0   0.70918631   0.71167685   -4.3321516   -4.3348006 
  301300 0.0019724949            0            0            0   0.70918631   0.71271604   -4.3321516   -4.3360049 
  301400 0.0019996622            0            0            0   0.70918631     0.711042   -4.3321516   -4.3334476 
  301500 0.0020432027            0            0            0   0.70918631   0.71274166   -4.3321516   -4.3325676 
  301600 0.0020112116            0            0            0   0.70918631   0.71641662   -4.3321516   -4.3342513 
  301700 0.0020642513            0            0            0   0.70918631   0.71587365   -4.3321516   -4.3349191 
  301800 0.0019907622            0            0            0   0.70918631   0.71554473   -4.3321516   -4.3402236 
  301900 0.0020183701            0            0            0   0.70918631   0.71824935   -4.3321516   -4.3370921 
  302000 0.0020362709            0            0            0   0.70918631   0.72213711   -4.3321516   -4.3338282 
  302100 0.0019710001            0            0            0   0.70918631   0.72404799   -4.3321516   -4.3352878 
  302200 0.0019903042            0            0            0   0.70918631   0.72165044   -4.3321516   -4.3346957 
  302300 0.0020501136            0            0            0   0.70918631   0.71619863   -4.3321516   -4.3295574 
  302400 0.0021026961            0            0            0   0.70918631   0.71713818   -4.3321516   -4.3335619 
  302500 0.0019892098            0            0            0   0.70918631   0.71290999   -4.3321516   -4.3345366 
  302600 0.0019620606            0            0            0   0.70918631   0.71223795   -4.3321516   -4.3375369 
  302700 0.0019727848            0            0            0   0.70918631   0.71142131   -4.3321516   -4.3417211 
  302800 0.0020083812            0            0            0   0.70918631   0.71212914   -4.3321516   -4.3389848 
  302900 0.0020130142            0            0            0   0.70918631   0.70731135   -4.3321516   -4.3408992 
  303000 0.0020031119            0            0            0   0.70918631   0.71056033   -4.3321516   -4.3371453 
  303100 0.0019905693            0            0            0   0.70918631   0.71143237   -4.3321516   -4.3386571 
  303200 0.0019924563            0            0            0   0.70918631    0.7118956   -4.3321516     -4.33895 
  303300 0.0020312257            0            0            0   0.70918631   0.71329866   -4.3321516     -4.34217 
  303400  0.002120207            0            0            0   0.70918631   0.71329898   -4.3321516   -4.3465566 
  303500 0.0020128213            0            0            0   0.70918631   0.71247966   -4.3321516   -4.3481078 
  303600 0.0019895732            0            0            0   0.70918631   0.70917071   -4.3321516   -4.3497978 
  303700  0.002050066            0            0            0   0.70918631   0.70795904   -4.3321516    -4.352922 
  303800 0.0020420882            0            0            0   0.70918631   0.70900804   -4.3321516   -4.3534145 
  303900 0.0020238927            0            0            0   0.70918631   0.70760507   -4.3321516   -4.3526762 
  304000 0.0019219157            0            0            0   0.70918631   0.70886515   -4.3321516   -4.3507377 
  304100 0.0020217875            0            0            0   0.70918631   0.71495393   -4.3321516   -4.3498419 
  304200 0.0020152379            0            0            0   0.70918631   0.72165402   -4.3321516   -4.3460379 
  304300 0.0019847048            0            0            0   0.70918631   0.71799236   -4.3321516   -4.3480213 
  304400 0.0019793869            0            0            0   0.70918631   0.71655183   -4.3321516   -4.3455834 
  304500 0.0020262742            0            0            0   0.70918631   0.71761489   -4.3321516   -4.3457336 
  304600 0.0020354875            0            0            0   0.70918631    0.7198173   -4.3321516   -4.3477046 
  304700 0.0020543934            0            0            0   0.70918631   0.71975107   -4.3321516   -4.3450592 
  304800 0.0020011534            0            0            0   0.70918631   0.72012017   -4.3321516   -4.3432462 
  304900 0.0020044827            0            0            0   0.70918631   0.71979685   -4.3321516   -4.3398968 
  305000 0.0020216269            0            0            0   0.70918631   0.71923143   -4.3321516   -4.3421043 
  305100 0.0020363951            0            0            0   0.70918631   0.71543615   -4.3321516   -4.3400724 
  305200 0.0020341931            0            0            0   0.70918631    0.7166987   -4.3321516   -4.3400208 
  305300 0.0019572513            0            0            0   0.70918631   0.71615556   -4.3321516   -4.3332827 
  305400 0.0020171838            0            0            0   0.70918631   0.72330647   -4.3321516   -4.3317525 
  305500 0.0020169958            0            0            0   0.70918631   0.72940103   -4.3321516   -4.3317552 
  305600 0.0020393003            0            0            0   0.70918631   0.73031304   -4.3321516   -4.3308303 
  305700 0.0020165441            0            0            0   0.70918631      0.73005   -4.3321516   -4.3288084 
  305800 0.0019912332            0            0            0   0.70918631   0.72658313   -4.3321516   -4.3286842 
  305900 0.0020028698            0            0            0   0.70918631   0.72150429   -4.3321516   -4.3277452 
  306000  0.002055715            0            0            0   0.70918631   0.71818833   -4.3321516   -4.3259034 
  306100 0.0020779378            0            0            0   0.70918631   0.71962568   -4.3321516   -4.3260308 
  306200 0.0020211858            0            0            0   0.70918631   0.71984527   -4.3321516   -4.3246704 
  306300 0.0020574957            0            0            0   0.70918631   0.72127759   -4.3321516   -4.3268258 
  306400 0.0020105022            0            0            0   0.70918631   0.71997912   -4.3321516   -4.3272737 
  306500 0.0020340978            0            0            0   0.70918631   0.71924794   -4.3321516   -4.3213839 
  306600 0.0020303384            0            0            0   0.70918631   0.71623254   -4.3321516   -4.3222147 
  306700 0.0020252605            0            0            0   0.70918631   0.71660855   -4.3321516   -4.3200295 
  306800 0.0020228533            0            0            0   0.70918631   0.72174095   -4.3321516    -4.324796 
  306900 0.0019975051            0            0            0   0.70918631   0.72509814   -4.3321516   -4.3254514 
  307000 0.0019630631            0            0            0   0.70918631   0.72730582   -4.3321516   -4.3273604 
  307100 0.0019857906            0            0            0   0.70918631   0.72623581   -4.3321516   -4.3333371 
  307200 0.0019930037            0            0            0   0.70918631   0.72686318   -4.3321516   -4.3337433 
  307300 0.0020482511            0            0            0   0.70918631   0.72309398   -4.3321516   -4.3333235 
  307400 0.0020406031            0            0            0   0.70918631   0.72329349   -4.3321516   -4.3292055 
  307500 0.0020377045            0            0            0   0.70918631   0.72707096   -4.3321516   -4.3323782 
  307600 0.0019782561            0            0            0   0.70918631   0.72958774   -4.3321516   -4.3342963 
  307700 0.0019990473            0            0            0   0.70918631    0.7272367   -4.3321516   -4.3334467 
  307800  0.001943823            0            0            0   0.70918631   0.72997117   -4.3321516   -4.3319794 
  307900 0.0020115462            0            0            0   0.70918631   0.72882513   -4.3321516   -4.3310456 
  308000 0.0020327431            0            0            0   0.70918631   0.72785564   -4.3321516   -4.3321404 
  308100 0.0020903751            0            0            0   0.70918631   0.72863113   -4.3321516   -4.3315832 
  308200 0.0020526138            0            0            0   0.70918631   0.73303137   -4.3321516   -4.3287822 
  308300 0.0020228977            0            0            0   0.70918631   0.73270378   -4.3321516   -4.3260633 
  308400 0.0019580867    76.175862   -92.645686    866.45393   0.70918631   0.73415002   -4.3321516   -4.3217261 
  308500 0.0019825905    418.75548   -667.72643    6656.9229   0.70918631   0.74056159   -4.3321516   -4.3202451 
  308600 0.0020594675    464.86665   -1500.7449    37607.565   0.70918631   0.73930632   -4.3321516   -4.3197353 
  308700 0.0018652998   -3346.6303   -821.58615    77377.452   0.70918631   0.73948493   -4.3321516    -4.320004 
  308800 0.0020364905   -3655.9652    216.47766    165952.68   0.70918631   0.74103504   -4.3321516   -4.3209589 
  308900 0.0020313722   -14362.759   -4979.3486    284028.39   0.70918631   0.74127743   -4.3321516   -4.3220213 
  309000 0.0020485851   -25090.204   -3344.3234    393417.94   0.70918631   0.74338825   -4.3321516   -4.3223304 
  309100 0.0020724852   -36818.234   -12511.494    585104.27   0.70918631   0.74921007   -4.3321516   -4.3229175 
  309200 0.0020167775   -63584.354   -12264.827    769237.18   0.70918631   0.75379352   -4.3321516   -4.3233683 
  309300 0.0020242572   -80219.141   -14856.572    987071.43   0.70918631   0.75393682   -4.3321516   -4.3221716 
  309400 0.0020163279   -94460.486   -6018.6848    1217315.1   0.70918631   0.75552527   -4.3321516   -4.3229157 
  309500 0.0019929896   -124367.75    7287.6816    1444240.3   0.70918631   0.75829413   -4.3321516   -4.3312291 
  309600 0.0020139216    -162188.8   -172.96655    1726909.6   0.70918631   0.76286169   -4.3321516    -4.328844 
  309700 0.0020361511   -208772.26    10874.048    2058466.6   0.70918631   0.76064334   -4.3321516   -4.3331445 
  309800 0.0020038753   -238593.78    12968.533    2381531.6   0.70918631   0.75870895   -4.3321516   -4.3351536 
  309900 0.0020425855   -271906.03    41811.815      2614170   0.70918631   0.75946663   -4.3321516   -4.3341104 
  310000    0.0020212    -332694.1    62364.169    2999768.1   0.70918631   0.76195482   -4.3321516   -4.3271815 
  310100  0.002035297   -383126.33    76361.393    3236149.3   0.70918631   0.76100761   -4.3321516   -4.3284088 
  310200 0.0020014418   -466272.77    97348.006    3588729.8   0.70918631   0.76418285   -4.3321516   -4.3292455 
  310300 0.0020472961   -510087.58    75800.344    3931220.8   0.70918631    0.7635918   -4.3321516    -4.330525 
  310400 0.0019419144   -570884.57    82775.763    4216890.7   0.70918631   0.76112543   -4.3321516   -4.3362707 
  310500 0.0019947211   -636561.84     61839.64    4629015.8   0.70918631   0.75763145   -4.3321516   -4.3315455 
  310600 0.0020064856   -691774.83    50369.934    4937856.8   0.70918631   0.76042929   -4.3321516    -4.335151 
  310700  0.001949208    -812112.7   -37642.516    5410241.8   0.70918631   0.76000719   -4.3321516   -4.3359354 
  310800 0.0021107297   -821532.03   -69649.846    5587115.4   0.70918631   0.76020266   -4.3321516   -4.3339785 
  310900 0.0020459058   -851749.07   -58902.177    5839418.7   0.70918631   0.76701509   -4.3321516   -4.3322167 
  311000 0.0020379658   -752351.37   -114611.88    6061383.4   0.70918631   0.76782107   -4.3321516   -4.3295733 
  311100 0.0021035996   -517858.98   -50306.244    6156182.2   0.70918631   0.76999365   -4.3321516   -4.3286194 
  311200 0.0019932866   -533839.31   -25478.143    6346518.5   0.70918631   0.77834104   -4.3321516   -4.3271944 
  311300 0.0020616236   -447721.94    122991.49    6274968.6   0.70918631   0.78151864   -4.3321516   -4.3250927 
  311400 0.0020264418    -341586.5    269049.07    6355407.9   0.70918631   0.78002341   -4.3321516   -4.3317379 
  311500 0.0019542462    -199311.4    188652.36    6255636.7   0.70918631   0.78359708   -4.3321516   -4.3301592 
  311600  0.002078182   -124266.13   -160169.03    6352145.8   0.70918631    0.7820217   -4.3321516   -4.3284825 
  311700 0.0020233297   -218630.15   -201078.87    6928025.3   0.70918631   0.78456636   -4.3321516   -4.3250253 
  311800 0.0019334942   -370232.34   -230208.93    7443566.2   0.70918631   0.78347779   -4.3321516   -4.3229445 
  311900  0.002033984   -494705.21   -293845.39    8017825.9   0.70918631   0.78483727   -4.3321516   -4.3179937 
  312000 0.0020711595    -609640.6   -252937.67    8871842.7   0.70918631   0.78253502   -4.3321516   -4.3134098 
  312100  0.002003154   -701746.66    -180555.9    9514820.4   0.70918631   0.78019512   -4.3321516   -4.3156129 
  312200 0.0019837468   -801732.25   -200124.52     10272028   0.70918631   0.78218065   -4.3321516   -4.3203611 
  312300 0.0020558391   -829149.47    -278639.2     11142044   0.70918631   0.78657193   -4.3321516   -4.3247325 
  312400 0.0020682615   -925994.85   -287992.68     11776645   0.70918631   0.78524762   -4.3321516   -4.3221251 
  312500 0.0020595896     -1019658      -453081     12418855   0.70918631   0.78453841   -4.3321516   -4.3206447 
  312600 0.0020266978   -1087383.1   -513858.67     13060535   0.70918631    0.7872448   -4.3321516   -4.3212746 
  312700 0.0020109874   -1242327.5   -628484.02     13538429   0.70918631   0.78489609   -4.3321516   -4.3193424 
  312800 0.0019945234   -1252320.3   -595849.96     14148653   0.70918631    0.7912743   -4.3321516   -4.3200739 
  312900 0.0019591992   -1632517.6   -723884.01     14546003   0.70918631     0.797811   -4.3321516   -4.3115984 
  313000 0.0020556702   -1709007.4   -858689.12     14678811   0.70918631   0.80905695   -4.3321516   -4.3067455 
  313100 0.0020758927   -1858189.6   -1185363.2     14420828   0.70918631    0.8122673   -4.3321516   -4.3054959 
  313200 0.0020220186   -1673949.8   -1517159.8     14275095   0.70918631    0.8212574   -4.3321516   -4.2971782 
  313300 0.0020634767   -1596501.6   -1610364.2     14206549   0.70918631   0.82492555   -4.3321516   -4.2848496 
  313400 0.0020319527   -1501678.8   -1742857.9     14186836   0.70918631   0.82918866   -4.3321516   -4.2777032 
  313500 0.0020293522   -1437855.2   -1851662.7     14621396   0.70918631   0.83261675   -4.3321516   -4.2715233 
  313600 0.0020814785   -1297251.5   -1833721.7     15117026   0.70918631   0.83980301   -4.3321516   -4.2659033 
  313700 0.0020164962   -1194024.1     -1795818     15731561   0.70918631   0.84660299   -4.3321516   -4.2603829 
  313800 0.0020429808   -1178590.9   -1612104.8     16566530   0.70918631    0.8512632   -4.3321516   -4.2541487 
  313900 0.0019846121   -949616.55   -1478019.8     17379966   0.70918631   0.85805242   -4.3321516   -4.2490671 
  314000 0.0019625584   -995959.46   -1458799.5     18256424   0.70918631   0.86289983   -4.3321516   -4.2411392 
Loop time of 27.7359 on 1 procs for 14000 steps with 3500 atoms

99.8% CPU use with 1 MPI tasks x no OpenMP threads

MPI task timing breakdown:
Section |  min time  |  avg time  |  max time  |%varavg| %total
---------------------------------------------------------------
Pair    | 24.714     | 24.714     | 24.714     |   0.0 | 89.11
Neigh   | 0.40826    | 0.40826    | 0.40826    |   0.0 |  1.47
Comm    | 0.0023448  | 0.0023448  | 0.0023448  |   0.0 |  0.01
Output  | 0.18281    | 0.18281    | 0.18281    |   0.0 |  0.66
Modify  | 2.3058     | 2.3058     | 2.3058     |   0.0 |  8.31
Other   |            | 0.1221     |            |       |  0.44

Nlocal:        3500.00 ave        3500 max        3500 min
Histogram: 1 0 0 0 0 0 0 0 0 0
Nghost:        0.00000 ave           0 max           0 min
Histogram: 1 0 0 0 0 0 0 0 0 0
Neighs:        25987.0 ave       25987 max       25987 min
Histogram: 1 0 0 0 0 0 0 0 0 0
FullNghs:      0.00000 ave           0 max           0 min
Histogram: 1 0 0 0 0 0 0 0 0 0

Total # of neighbors = 25987
Ave neighs/atom = 7.4248571
Neighbor list builds = 64
Dangerous builds = 0
unfix indn
fix  indn all indent 500000 sphere v_nuc_cmx v_nuc_cmy v_z_ind_low 5 side out units box
run 59000
WARNING: One or more atoms are time integrated more than once (../modify.cpp:285)
Neighbor list info ...
  update every 1 steps, delay 5 steps, check yes
  max neighbors/atom: 2000, page size: 100000
  master list distance cutoff = 15.45235
  ghost atom cutoff = 15.45235
  binsize = 7.726175, bins = 26 26 11
  5 neighbor lists, perpetual/occasional/extra = 4 1 0
  (1) pair semEMp, perpetual, skip from (5)
      attributes: half, newton off
      pair build: skip
      stencil: none
      bin: none
  (2) pair semNucM, perpetual, skip from (5)
      attributes: half, newton off
      pair build: skip
      stencil: none
      bin: none
  (3) pair lj/cut, perpetual, skip from (5)
      attributes: half, newton off
      pair build: skip
      stencil: none
      bin: none
  (4) compute coord/atom, occasional
      attributes: full, newton off
      pair build: full/bin/atomonly
      stencil: full/bin/3d
      bin: standard
  (5) neighbor class addition, perpetual
      attributes: half, newton off
      pair build: half/bin/newtoff
      stencil: half/bin/3d/newtoff
      bin: standard
Per MPI rank memory allocation (min/avg/max) = 11.73 | 11.73 | 11.73 Mbytes
Step Temp f_indn[1] f_indn[2] f_indn[3] v_nuc_cmx c_nuc_centreofmass[1] v_nuc_cmy c_nuc_centreofmass[2] 
  314000 0.0019844475   -995959.46   -1458799.5     18256424   0.70918631   0.86289983   -4.3321516   -4.2411392 
  314100 0.0020802256   -894555.19   -1315189.4     17820930   0.70918631   0.86475892   -4.3321516   -4.2320177 
  314200 0.0021226525   -781941.71   -1196150.7     17445014   0.70918631   0.86635882   -4.3321516   -4.2280536 
  314300 0.0020296309   -650536.12   -1142869.3     17179906   0.70918631   0.87033815   -4.3321516   -4.2235558 
  314400 0.0020236227   -565129.46   -1030006.4     17004422   0.70918631   0.87173744   -4.3321516   -4.2171775 
  314500 0.0020424682   -460886.95   -1024839.8     16930317   0.70918631    0.8754154   -4.3321516   -4.2114329 
  314600 0.0020375057   -341216.06   -981463.26     16835932   0.70918631   0.87832662   -4.3321516    -4.203696 
  314700 0.0019622335   -264394.07   -959852.39     16661317   0.70918631   0.88159737   -4.3321516   -4.1995487 
  314800 0.0020032929   -192339.67   -901653.35     16572210   0.70918631   0.87747837   -4.3321516    -4.193506 
  314900 0.0020168912   -299244.32   -1010102.8     16455759   0.70918631    0.8755079   -4.3321516   -4.1931208 
  315000 0.0020462214   -243851.79   -1005038.7     16207152   0.70918631   0.87742834   -4.3321516   -4.1936235 
  315100 0.0019862901   -99788.227   -1086792.2     16062647   0.70918631   0.87739513   -4.3321516   -4.1857303 
  315200  0.002061418   -91001.276   -1115424.5     15844140   0.70918631   0.88102273   -4.3321516   -4.1796556 
  315300 0.0020255223   -49186.574   -1164763.3     15618440   0.70918631   0.88042259   -4.3321516    -4.180095 
  315400  0.001994325   -19172.114   -1156231.2     15379115   0.70918631   0.88062771   -4.3321516   -4.1741507 
  315500 0.0020379095    87823.199   -1136232.6     15271155   0.70918631   0.87783361   -4.3321516   -4.1732181 
  315600 0.0020387653     237514.9   -945043.89     15061666   0.70918631   0.87325664   -4.3321516   -4.1763171 
  315700 0.0020440858    278015.75   -897601.99     14922395   0.70918631   0.86811728   -4.3321516   -4.1738205 
  315800 0.0019807385    381595.45   -779032.31     14796755   0.70918631   0.87059856   -4.3321516   -4.1702479 
  315900 0.0020363843    436718.45   -738679.86     14765078   0.70918631   0.86967933   -4.3321516   -4.1705051 
  316000 0.0020408859    516233.48    -715249.5     14745404   0.70918631    0.8656852   -4.3321516   -4.1721806 
  316100 0.0021047502    413776.84   -666344.59     14543364   0.70918631   0.86315776   -4.3321516   -4.1724146 
  316200 0.0020243252    417608.25   -663108.74     14439536   0.70918631   0.86440949   -4.3321516   -4.1677371 
  316300 0.0020284987     454632.8   -595401.79     14410313   0.70918631   0.86325066   -4.3321516   -4.1678637 
  316400 0.0020445848    505247.74   -686720.63     14317520   0.70918631   0.86022614   -4.3321516   -4.1705479 
  316500 0.0019921419       512026   -637461.45     14249514   0.70918631   0.85905966   -4.3321516   -4.1684335 
  316600 0.0020015748    483392.83   -593285.81     14137413   0.70918631   0.85580549   -4.3321516   -4.1653782 
  316700 0.0020609051    582931.55   -587508.45     14062377   0.70918631   0.85431056   -4.3321516   -4.1693295 
  316800 0.0019875855    619798.55   -550432.93     14004649   0.70918631   0.85164196   -4.3321516   -4.1698648 
  316900 0.0020685113     623203.5   -655333.15     13893337   0.70918631   0.85007057   -4.3321516   -4.1716216 
  317000  0.002031903    616509.88   -669489.58     13803551   0.70918631   0.84568825   -4.3321516   -4.1689205 
  317100 0.0020783361    613608.24   -655718.83     13672285   0.70918631    0.8468805   -4.3321516   -4.1689526 
  317200 0.0020343158    637722.54   -667609.66     13574884   0.70918631   0.84007227   -4.3321516   -4.1680965 
  317300 0.0019926321    681625.54   -535163.15     13453567   0.70918631   0.83919608   -4.3321516   -4.1709709 
  317400 0.0020342139    695436.64   -566575.29     13427721   0.70918631   0.83478907   -4.3321516   -4.1699413 
  317500 0.0020711432    677865.02   -645804.36     13316337   0.70918631   0.82729352   -4.3321516   -4.1730062 
  317600 0.0020080677    730445.04   -686868.94     13358298   0.70918631    0.8280986   -4.3321516   -4.1713876 
  317700 0.0020156455    724903.99   -695955.97     13218209   0.70918631   0.82561459   -4.3321516   -4.1696874 
  317800 0.0019998873    724418.85   -668978.39     13087729   0.70918631   0.82447135   -4.3321516   -4.1690749 
  317900 0.0020083299    790070.38   -643143.66     13125653   0.70918631    0.8229126   -4.3321516   -4.1650068 
  318000 0.0021128363    818913.52   -684383.18     13176634   0.70918631   0.82017047   -4.3321516   -4.1693483 
  318100 0.0020593688    820171.59   -688342.32     13071875   0.70918631   0.81483099   -4.3321516   -4.1691578 
  318200 0.0019917346    825047.92   -727354.45     13059262   0.70918631   0.81177422   -4.3321516   -4.1703907 
  318300 0.0020399858    792217.56   -700505.55     13015287   0.70918631   0.80376403   -4.3321516   -4.1705206 
  318400 0.0020532738    807180.17   -656196.18     12957515   0.70918631   0.79958685   -4.3321516   -4.1708587 
  318500 0.0020264109    821049.67   -688230.51     12921581   0.70918631   0.79695383   -4.3321516   -4.1751107 
  318600 0.0020155437    753466.75   -732282.46     12803953   0.70918631   0.79588098   -4.3321516   -4.1714319 
  318700 0.0020372497    778859.76   -695045.54     12778056   0.70918631   0.79114222   -4.3321516   -4.1688339 
  318800 0.0019765697    764643.14   -641477.06     12628964   0.70918631   0.78481196   -4.3321516   -4.1699377 
  318900 0.0020141417    777146.52   -675983.08     12608169   0.70918631   0.78120516   -4.3321516   -4.1705019 
  319000 0.0020548487    789257.29   -710066.67     12517212   0.70918631   0.78136371   -4.3321516   -4.1664286 
  319100 0.0020617439     783940.9   -690121.26     12402587   0.70918631   0.77997728   -4.3321516   -4.1687837 
  319200 0.0019951621    707764.89   -574415.44     12418532   0.70918631   0.78190959   -4.3321516   -4.1647505 
  319300  0.002183446    759844.63   -544745.82     12473572   0.70918631   0.77585691   -4.3321516   -4.1619043 
  319400 0.0020009031    661353.15   -631058.97     12545932   0.70918631   0.77517258   -4.3321516    -4.163565 
  319500 0.0020467941    746044.03   -648300.65     12416727   0.70918631   0.77462746   -4.3321516   -4.1663913 
  319600 0.0020156441    691853.11   -591225.23     12376900   0.70918631    0.7724789   -4.3321516   -4.1698866 
  319700 0.0020197272    677653.38   -571558.06     12188712   0.70918631   0.76784721   -4.3321516   -4.1709446 
  319800  0.002024309    681155.85   -689373.34     12237770   0.70918631   0.76323149   -4.3321516   -4.1682768 
  319900 0.0020286943    708386.25   -619782.91     12217246   0.70918631   0.76557094   -4.3321516   -4.1710896 
  320000 0.0019272598    723751.97   -662993.85     12228639   0.70918631   0.76502739   -4.3321516   -4.1705062 
  320100 0.0020012903     668579.8   -621676.79     12347812   0.70918631   0.75949089   -4.3321516   -4.1665898 
  320200 0.0020344673    744544.23   -586494.16     12363759   0.70918631   0.75469678   -4.3321516   -4.1671638 
  320300  0.002010126    776168.74   -561813.93     12226668   0.70918631   0.74938889   -4.3321516   -4.1630238 
  320400 0.0020835698    703377.71   -617156.67     12213651   0.70918631   0.74827898   -4.3321516   -4.1618043 
  320500 0.0020450196    765002.05   -569116.81     12268102   0.70918631   0.74872627   -4.3321516   -4.1649569 
  320600 0.0019942195    811304.36   -614380.89     12327000   0.70918631   0.74818922   -4.3321516   -4.1667041 
  320700 0.0020409364    891442.83   -553702.25     12345886   0.70918631   0.74380194   -4.3321516   -4.1634449 
  320800 0.0020027849    806522.33   -623714.59     12262420   0.70918631   0.73679695   -4.3321516   -4.1664577 
  320900 0.0019967751    784699.57   -643769.73     12172828   0.70918631   0.73447191   -4.3321516   -4.1632449 
  321000 0.0019832251    876494.92   -645637.45     12108056   0.70918631    0.7339226   -4.3321516   -4.1605498 
  321100 0.0020334355    819933.97   -635738.84     12060113   0.70918631   0.72677455   -4.3321516   -4.1643292 
  321200 0.0020461146    874713.87   -629633.48     12057000   0.70918631   0.72073987   -4.3321516    -4.165748 
  321300  0.002029581    839735.47   -628207.37     11989781   0.70918631   0.72224863   -4.3321516   -4.1658281 
  321400 0.0019590695    859487.11   -592999.42     12060010   0.70918631   0.72142978   -4.3321516   -4.1687753 
  321500 0.0019817921    860367.15   -631186.39     12020117   0.70918631   0.71986453   -4.3321516   -4.1690064 
  321600 0.0020007884    836323.61    -650252.1     11822531   0.70918631   0.71812389   -4.3321516   -4.1726869 
  321700  0.001969561    857147.97    -640542.3     11873400   0.70918631   0.71739339   -4.3321516   -4.1730112 
  321800 0.0020601582    815873.43   -596447.24     11748204   0.70918631   0.71241822   -4.3321516   -4.1739858 
  321900 0.0020332409    870576.83   -648876.44     11806322   0.70918631   0.70871819   -4.3321516   -4.1787177 
  322000 0.0019893203    843615.75   -570935.25     11778631   0.70918631   0.70824379   -4.3321516   -4.1776381 
  322100 0.0020287998    785822.77   -676812.53     11801086   0.70918631   0.70655733   -4.3321516   -4.1768313 
  322200 0.0020470914    810818.12   -699687.67     11689577   0.70918631   0.70090366   -4.3321516   -4.1799359 
  322300 0.0020117962    804075.87   -629026.58     11694847   0.70918631    0.6942921   -4.3321516   -4.1787066 
  322400 0.0020108998    794818.61   -642505.02     11686838   0.70918631   0.69105787   -4.3321516   -4.1730401 
  322500 0.0019930906    794336.35   -592589.85     11649745   0.70918631   0.68612882   -4.3321516   -4.1735792 
  322600 0.0019706682    789013.99    -656472.3     11550731   0.70918631    0.6808593   -4.3321516   -4.1762671 
  322700  0.002121102    786530.43   -670474.86     11618400   0.70918631   0.67974859   -4.3321516   -4.1786331 
  322800 0.0020624848     847722.1   -704230.79     11623685   0.70918631   0.68435756   -4.3321516   -4.1744905 
  322900 0.0020499004     749738.1   -611588.66     11659993   0.70918631   0.68290444   -4.3321516   -4.1738184 
  323000 0.0020150645    778422.74   -601021.41     11672090   0.70918631   0.67919455   -4.3321516   -4.1736114 
  323100 0.0020068116    731573.65   -608899.27     11518522   0.70918631    0.6740511   -4.3321516   -4.1726109 
  323200  0.001949648    707707.64   -655843.15     11555042   0.70918631   0.67303495   -4.3321516   -4.1728618 
  323300 0.0021118917    692248.55   -632396.23     11668752   0.70918631   0.67007077   -4.3321516   -4.1711597 
  323400 0.0020086336    755983.83   -672411.05     11629504   0.70918631   0.66759701   -4.3321516   -4.1682453 
  323500 0.0020085377    808270.82   -672852.81     11549548   0.70918631   0.66436739   -4.3321516   -4.1676158 
  323600 0.0020150053    734149.21   -717181.91     11711004   0.70918631   0.66040876   -4.3321516    -4.165487 
  323700 0.0020203333    742228.15   -702641.34     11753558   0.70918631   0.65820712   -4.3321516   -4.1678031 
  323800 0.0020174541    705303.93   -673138.78     11758786   0.70918631   0.65461107   -4.3321516   -4.1668846 
  323900 0.0020383113     747833.6   -716294.95     11704035   0.70918631   0.65189201   -4.3321516   -4.1665237 
  324000  0.002045549    755321.94   -668136.32     11637522   0.70918631   0.65110996   -4.3321516   -4.1674568 
  324100 0.0020200437    732094.87    -702523.2     11754982   0.70918631   0.64876337   -4.3321516   -4.1684647 
  324200 0.0020448845    702260.46   -678649.42     11798290   0.70918631    0.6431448   -4.3321516   -4.1755288 
  324300 0.0020555783    705501.22   -683240.87     11641174   0.70918631   0.64167954   -4.3321516   -4.1717263 
  324400 0.0020851603    771477.09   -642913.71     11708427   0.70918631   0.64043636   -4.3321516   -4.1753302 
  324500   0.00206065    777677.78   -675757.02     11748070   0.70918631   0.64375213   -4.3321516    -4.177063 
  324600 0.0020543957    789093.51      -673101     11557527   0.70918631   0.64213817   -4.3321516   -4.1766949 
  324700 0.0019926826    787706.37   -632717.99     11791532   0.70918631     0.640895   -4.3321516    -4.180656 
  324800 0.0020679297    835800.22   -639199.77     11683429   0.70918631   0.64083431   -4.3321516   -4.1755955 
  324900  0.002021103    780906.74   -602013.99     11678366   0.70918631   0.63706244   -4.3321516   -4.1732452 
  325000  0.001961239    756764.36   -633824.17     11654845   0.70918631   0.63719297   -4.3321516   -4.1769896 
  325100    0.0020128    749400.92   -567590.16     11601754   0.70918631   0.63315794   -4.3321516   -4.1772402 
  325200 0.0020918995    732791.54   -600108.37     11629594   0.70918631    0.6307303   -4.3321516   -4.1730553 
  325300 0.0020125003    760119.51   -603211.22     11614011   0.70918631   0.63068656   -4.3321516   -4.1714143 
  325400 0.0020399227       763562   -600688.67     11620104   0.70918631   0.62907997   -4.3321516   -4.1703531 
  325500 0.0020612877    714513.18    -606529.5     11677186   0.70918631    0.6253554   -4.3321516   -4.1621345 
  325600 0.0020576856    694300.99   -623626.83     11599784   0.70918631   0.62202915   -4.3321516   -4.1583392 
  325700  0.002062864    726852.16   -619400.36     11612314   0.70918631    0.6218422   -4.3321516   -4.1603573 
  325800 0.0020145457    695468.16   -550322.99     11599696   0.70918631   0.61823025   -4.3321516   -4.1578368 
  325900 0.0020948833    670640.71   -603690.78     11677228   0.70918631   0.61333115   -4.3321516   -4.1578939 
  326000 0.0020620329    680481.37   -627337.44     11698398   0.70918631    0.6171581   -4.3321516   -4.1606505 
  326100 0.0020906999    721594.18   -626993.95     11689630   0.70918631   0.61661563   -4.3321516   -4.1616737 
  326200 0.0020373352    690704.85   -609272.15     11664879   0.70918631    0.6165147   -4.3321516   -4.1623181 
  326300 0.0019481582    723386.95   -578394.99     11636974   0.70918631   0.61554575   -4.3321516   -4.1646256 
  326400 0.0020613472     754000.1   -556689.08     11615005   0.70918631    0.6190085   -4.3321516   -4.1661232 
  326500 0.0020118912    733084.49    -593222.4     11485745   0.70918631   0.61635662   -4.3321516   -4.1663043 
  326600 0.0019982845    736455.59   -597042.97     11577192   0.70918631   0.61876874   -4.3321516   -4.1665335 
  326700 0.0020306629    696724.32   -596268.54     11671105   0.70918631   0.61404864   -4.3321516   -4.1693256 
  326800 0.0020568816    723597.54   -597039.88     11658282   0.70918631    0.6122228   -4.3321516   -4.1686834 
  326900 0.0019913781    742210.04   -629731.65     11602973   0.70918631   0.60831201   -4.3321516   -4.1706232 
  327000 0.0020197878    762332.18   -612392.44     11649792   0.70918631   0.60190688   -4.3321516   -4.1706152 
  327100 0.0020290629       675128   -626914.28     11596188   0.70918631   0.60179818   -4.3321516   -4.1689991 
  327200  0.002044872    662251.41   -531881.18     11486222   0.70918631   0.60593744   -4.3321516    -4.168986 
  327300 0.0020581412    684384.87   -580824.06     11571857   0.70918631   0.60300241   -4.3321516   -4.1712995 
  327400  0.002094455    702622.11   -572510.87     11573796   0.70918631   0.60065505   -4.3321516   -4.1730663 
  327500 0.0020515337    774896.39    -573409.5     11571536   0.70918631   0.60002706   -4.3321516   -4.1767489 
  327600 0.0020244083    655898.85   -572585.96     11472814   0.70918631   0.60198263   -4.3321516   -4.1780765 
  327700 0.0019464532    700061.33    -577633.7     11412777   0.70918631   0.60484903   -4.3321516   -4.1803779 
  327800 0.0020472377    707134.81    -573593.2     11487147   0.70918631   0.60450482   -4.3321516   -4.1783803 
  327900 0.0020236309     601010.3   -605307.07     11503029   0.70918631   0.59927351   -4.3321516   -4.1804484 
  328000 0.0020128853    671282.15   -561478.35     11401423   0.70918631    0.5990255   -4.3321516   -4.1784531 
  328100 0.0020296022    697588.62   -620036.49     11490019   0.70918631    0.6008365   -4.3321516   -4.1843403 
  328200 0.0020946483    725989.42   -609966.17     11539817   0.70918631   0.60251999   -4.3321516    -4.183357 
  328300 0.0020599828    630121.04   -581199.22     11560167   0.70918631   0.60379242   -4.3321516   -4.1819568 
  328400 0.0019766256    673326.28    -626791.8     11595763   0.70918631    0.6041286   -4.3321516    -4.183274 
  328500 0.0020214486    690556.88   -622094.63     11383801   0.70918631   0.60194129   -4.3321516   -4.1833885 
  328600 0.0020299952    670650.82   -606792.84     11548024   0.70918631    0.6010737   -4.3321516   -4.1834292 
  328700 0.0020208437    668515.88   -594973.85     11432968   0.70918631   0.59747713   -4.3321516   -4.1793018 
  328800 0.0020633823    635095.95   -601805.77     11541072   0.70918631   0.60029827   -4.3321516   -4.1760499 
  328900 0.0020470258    675910.03   -604259.55     11429359   0.70918631   0.60226918   -4.3321516   -4.1761031 
  329000 0.0019930546       595373    -569799.8     11408432   0.70918631   0.60124377   -4.3321516   -4.1766608 
  329100 0.0020946129    660598.73    -570550.7     11518913   0.70918631   0.59818263   -4.3321516    -4.180308 
  329200  0.002081163     658151.6   -610551.55     11510953   0.70918631   0.60122587   -4.3321516   -4.1839919 
  329300  0.002076553    642131.26   -612807.56     11364148   0.70918631   0.60400354   -4.3321516   -4.1859152 
  329400 0.0020890391    646471.21   -620662.76     11341617   0.70918631   0.60009879   -4.3321516   -4.1841179 
  329500 0.0020722665    660549.13   -582737.67     11474262   0.70918631   0.60099957   -4.3321516   -4.1814912 
  329600 0.0020272867    705851.12    -587534.4     11494519   0.70918631   0.60065271   -4.3321516   -4.1839678 
  329700 0.0020738406    699343.67   -608213.84     11490009   0.70918631   0.60064704   -4.3321516   -4.1835903 
  329800 0.0020360537    687465.59   -603471.05     11354726   0.70918631   0.60030643   -4.3321516   -4.1848739 
  329900 0.0019750617    691930.17   -590159.87     11413098   0.70918631   0.60075284   -4.3321516   -4.1884663 
  330000  0.002066047    615989.77   -612758.78     11308088   0.70918631   0.59615573   -4.3321516   -4.1861222 
  330100 0.0020676179    637106.15    -599391.2     11246095   0.70918631   0.59220559   -4.3321516   -4.1873466 
  330200 0.0020400594    646890.82   -613231.18     11315115   0.70918631   0.58889463   -4.3321516   -4.1846132 
  330300 0.0019951368    616799.73   -614424.93     11326717   0.70918631   0.58713373   -4.3321516   -4.1781695 
  330400 0.0020151082    646033.98   -569589.43     11180343   0.70918631    0.5907433   -4.3321516   -4.1766213 
  330500 0.0020454712    647423.96   -597051.64     11211047   0.70918631    0.5902251   -4.3321516   -4.1736492 
  330600 0.0019758494    728720.68   -598741.68     11325688   0.70918631   0.59108915   -4.3321516   -4.1744549 
  330700 0.0020444457    738552.02   -532795.12     11351974   0.70918631   0.58852486   -4.3321516   -4.1782641 
  330800 0.0019924048    722347.24   -558971.74     11376856   0.70918631   0.58777976   -4.3321516   -4.1789058 
  330900 0.0020121784     723183.1   -564176.77     11343246   0.70918631   0.58914667   -4.3321516   -4.1810463 
  331000 0.0020755868     679620.3   -606932.71     11339259   0.70918631   0.59378684   -4.3321516   -4.1826987 
  331100 0.0020544922       644776   -648182.98     11408507   0.70918631   0.58766111   -4.3321516   -4.1807477 
  331200 0.0021313807    638119.84   -643525.79     11342611   0.70918631   0.59068397   -4.3321516   -4.1763485 
  331300 0.0019692927    643511.89   -629420.42     11353916   0.70918631   0.58949273   -4.3321516   -4.1761846 
  331400  0.002049861    661393.44   -629613.63     11333853   0.70918631   0.59031326   -4.3321516   -4.1750909 
  331500 0.0019967729    688831.73   -674328.38     11353101   0.70918631   0.59194766   -4.3321516   -4.1757946 
  331600 0.0020119647    637468.34   -670390.32     11426553   0.70918631   0.58829003   -4.3321516   -4.1715396 
  331700 0.0020879829    633063.34    -662328.5     11425857   0.70918631   0.58761546   -4.3321516   -4.1722322 
  331800 0.0020771802    623618.37      -681311     11515293   0.70918631   0.58786063   -4.3321516    -4.175002 
  331900 0.0020710008    596919.65   -648485.24     11509191   0.70918631   0.58775274   -4.3321516   -4.1731828 
  332000  0.002012129       729022   -653814.58     11472354   0.70918631     0.589937   -4.3321516   -4.1734537 
  332100  0.002010599    714670.29   -620098.74     11483707   0.70918631   0.58984884   -4.3321516   -4.1751855 
  332200 0.0021337532    684381.83   -679221.11     11438962   0.70918631    0.5900212   -4.3321516   -4.1758148 
  332300 0.0019715696    621040.14   -637740.89     11402250   0.70918631   0.58759236   -4.3321516   -4.1769152 
  332400 0.0020206441    652897.86   -629740.91     11421460   0.70918631   0.58796389   -4.3321516   -4.1793956 
  332500 0.0021101173    684847.78   -611205.97     11385045   0.70918631   0.58373124   -4.3321516   -4.1760778 
  332600  0.002022213    618032.09   -606965.58     11277616   0.70918631   0.58598966   -4.3321516   -4.1780716 
  332700 0.0020319241    660660.47   -621684.93     11407887   0.70918631   0.59088668   -4.3321516   -4.1812102 
  332800  0.001948438    631714.31   -598560.56     11382662   0.70918631   0.58596128   -4.3321516    -4.185143 
  332900 0.0021433404    643567.19   -662860.83     11419819   0.70918631   0.58428851   -4.3321516   -4.1857535 
  333000 0.0019768958    672705.75   -652727.75     11543809   0.70918631   0.58172145   -4.3321516   -4.1873591 
  333100 0.0021105691    627958.29   -697650.43     11648149   0.70918631   0.58128995   -4.3321516   -4.1872138 
  333200 0.0020430874    666470.29   -642378.91     11588877   0.70918631   0.58071401   -4.3321516   -4.1851101 
  333300 0.0020391584    639258.33   -665499.89     11576439   0.70918631   0.57694105   -4.3321516   -4.1841453 
  333400 0.0019928404    654583.19    -622635.8     11611569   0.70918631   0.57550727   -4.3321516   -4.1820761 
  333500 0.0020325124    674217.87   -647211.82     11451591   0.70918631   0.57480556   -4.3321516   -4.1789578 
  333600 0.0019941924    696275.64   -641518.41     11397411   0.70918631   0.57630597   -4.3321516    -4.178751 
  333700 0.0020584783     695173.4   -654242.69     11342620   0.70918631   0.57658897   -4.3321516   -4.1768752 
  333800 0.0020472188    658022.97   -669013.97     11338635   0.70918631   0.57788299   -4.3321516   -4.1757861 
  333900 0.0020401243    651862.25   -673223.71     11330085   0.70918631   0.57371118   -4.3321516   -4.1752928 
  334000 0.0021025649    657023.21      -655074     11260972   0.70918631   0.57376751   -4.3321516   -4.1715942 
  334100 0.0020579145    612669.63   -650544.05     11215128   0.70918631   0.57762728   -4.3321516    -4.173864 
  334200 0.0020433178    681746.81    -641890.3     11314299   0.70918631   0.58181789   -4.3321516   -4.1733875 
  334300 0.0020226352     698501.6   -596457.14     11295170   0.70918631   0.58021372   -4.3321516   -4.1731181 
  334400  0.002064514     650483.1    -610056.3     11283819   0.70918631   0.57374413   -4.3321516   -4.1778751 
  334500 0.0020012903    651639.72   -542514.66     11409555   0.70918631   0.57265047   -4.3321516   -4.1777239 
  334600 0.0020280243    637714.88   -561226.77     11328375   0.70918631   0.57130841   -4.3321516   -4.1789306 
  334700 0.0020299162    608179.57   -538462.43     11235865   0.70918631   0.56954574   -4.3321516   -4.1844211 
  334800 0.0020218189    601182.97   -585256.59     11280848   0.70918631    0.5660564   -4.3321516   -4.1817358 
  334900 0.0019655584    622674.26   -568537.37     11343555   0.70918631   0.56688051   -4.3321516   -4.1838971 
  335000  0.002042623    598761.74   -555548.24     11362399   0.70918631   0.57053998   -4.3321516   -4.1791252 
  335100 0.0020113261    623407.35   -529077.66     11415376   0.70918631     0.573534   -4.3321516   -4.1858543 
  335200 0.0020325185     616851.3   -564984.48     11353116   0.70918631   0.57941532   -4.3321516    -4.183789 
  335300 0.0020010124    626112.36   -576008.58     11332399   0.70918631   0.58230925   -4.3321516   -4.1928164 
  335400 0.0020089064    553809.09   -631736.53     11296435   0.70918631   0.58288463   -4.3321516   -4.1964497 
  335500  0.002017233    582885.57   -604061.33     11232936   0.70918631   0.58424417   -4.3321516   -4.1968525 
  335600 0.0020789642    530789.11   -610736.75     11245239   0.70918631   0.58220263   -4.3321516   -4.1939578 
  335700  0.002103727    540203.42   -626286.53     11282888   0.70918631   0.58101604   -4.3321516   -4.1952642 
  335800 0.0020661763       531826   -613457.15     11299970   0.70918631   0.57920303   -4.3321516   -4.1939278 
  335900 0.0020392151    526310.33   -624448.14     11326002   0.70918631    0.5788094   -4.3321516   -4.1927952 
  336000 0.0021084729    544433.27    -621714.7     11280028   0.70918631   0.58037283   -4.3321516   -4.1878168 
  336100 0.0020473513    537548.23   -636569.11     11257980   0.70918631   0.57815813   -4.3321516   -4.1868413 
  336200 0.0020797197    482925.01   -645367.99     11272483   0.70918631   0.57317197   -4.3321516     -4.18705 
  336300 0.0020255203    515152.07   -719212.91     11359000   0.70918631   0.57518354   -4.3321516   -4.1875258 
  336400  0.002024142    492629.89   -696654.66     11305024   0.70918631    0.5783368   -4.3321516   -4.1859601 
  336500 0.0020646444    601631.48   -756487.68     11447871   0.70918631   0.57604658   -4.3321516   -4.1841625 
  336600 0.0020961933    497783.15   -742183.55     11408624   0.70918631   0.57349898   -4.3321516   -4.1831929 
  336700 0.0020612996     493882.7   -689976.88     11278731   0.70918631   0.57174506   -4.3321516   -4.1835689 
  336800  0.002075398    512840.48   -638012.17     11261102   0.70918631   0.57200614   -4.3321516   -4.1801237 
  336900  0.002031623    462237.12   -726506.93     11231874   0.70918631   0.57035698   -4.3321516   -4.1803268 
  337000 0.0020520979    467214.31    -695491.3     11321982   0.70918631   0.57310276   -4.3321516    -4.176401 
  337100 0.0020199943    428852.79   -742513.99     11321829   0.70918631   0.57356064   -4.3321516   -4.1764256 
  337200 0.0021000039    416079.22   -653530.07     11281517   0.70918631   0.57155271   -4.3321516   -4.1718706 
  337300 0.0020461939    492504.57   -652430.55     11213125   0.70918631   0.57459435   -4.3321516   -4.1701418 
  337400 0.0020122437    428026.05   -730542.18     11176867   0.70918631   0.57687003   -4.3321516   -4.1722158 
  337500 0.0020846262    495351.01   -737089.86     11195109   0.70918631   0.57929959   -4.3321516   -4.1715732 
  337600 0.0020768827     484824.5   -737197.21     11096545   0.70918631   0.57495012   -4.3321516     -4.17139 
  337700 0.0020322088    466635.57   -722721.04     11159949   0.70918631   0.56861939   -4.3321516   -4.1727372 
  337800 0.0020025195    530263.34   -772961.65     11226724   0.70918631   0.56870343   -4.3321516   -4.1758256 
  337900 0.0020946049    468223.81   -675566.29     11155309   0.70918631   0.56477797   -4.3321516   -4.1741533 
  338000  0.002033264    501908.59   -721946.55     11099935   0.70918631    0.5666972   -4.3321516   -4.1781348 
  338100 0.0020656172    438850.81    -755743.6     11128328   0.70918631   0.56476861   -4.3321516   -4.1723898 
  338200  0.002014175    465096.23   -663483.41     11055670   0.70918631    0.5655332   -4.3321516   -4.1710878 
  338300 0.0020041528    513047.04   -636759.09     10975706   0.70918631   0.56839361   -4.3321516   -4.1676562 
  338400 0.0019761792    475029.64    -547250.3     11061556   0.70918631    0.5664309   -4.3321516   -4.1658338 
  338500 0.0020491586    393076.66   -558616.39     11081866   0.70918631   0.56381377   -4.3321516    -4.163702 
  338600 0.0019894273    470511.85   -535537.19     11053439   0.70918631   0.56336687   -4.3321516   -4.1632374 
  338700 0.0020039974    441635.54    -548936.8     10950318   0.70918631   0.56191016   -4.3321516    -4.162871 
  338800 0.0020847529    452815.69   -564998.03     10953116   0.70918631   0.56074388   -4.3321516   -4.1589698 
  338900 0.0020613442    479360.67    -530174.4     10856387   0.70918631   0.56286899   -4.3321516   -4.1586713 
  339000 0.0019684558    523283.59    -538086.3     10904746   0.70918631   0.56159999   -4.3321516   -4.1568258 
  339100  0.002010115    527091.77   -531349.14     10809354   0.70918631   0.56034276   -4.3321516   -4.1568664 
  339200 0.0020006208    526648.37   -533423.32     10815652   0.70918631   0.56181056   -4.3321516   -4.1548312 
  339300 0.0019997119    506552.07   -545532.02     10603819   0.70918631   0.55746856   -4.3321516   -4.1541028 
  339400 0.0019909338    542481.66   -532924.48     10671358   0.70918631   0.55893713   -4.3321516   -4.1515215 
  339500 0.0020490417    538854.64    -460753.2     10636344   0.70918631    0.5593365   -4.3321516   -4.1523947 
  339600  0.002007094    538255.41   -476172.18     10456257   0.70918631   0.55931443   -4.3321516   -4.1555567 
  339700 0.0019902907    516820.73   -409663.85     10412678   0.70918631   0.55496992   -4.3321516   -4.1532671 
  339800  0.002076515    549092.07   -417327.43     10390415   0.70918631   0.55451371   -4.3321516   -4.1570086 
  339900 0.0019518874    539660.62   -440503.95     10369405   0.70918631   0.55246234   -4.3321516   -4.1581304 
  340000 0.0020782507    472940.08   -473212.35     10317967   0.70918631   0.55110142   -4.3321516   -4.1613238 
  340100 0.0020814872    482902.34   -396516.66     10218366   0.70918631   0.54990616   -4.3321516   -4.1621408 
  340200 0.0020802864    418340.58   -435240.56     10279185   0.70918631   0.54928513   -4.3321516   -4.1589979 
  340300 0.0020211197    459088.42   -504399.06     10206906   0.70918631   0.55109904   -4.3321516   -4.1584638 
  340400 0.0019965983    485924.17   -476210.47     10296176   0.70918631   0.55522696   -4.3321516   -4.1589614 
  340500 0.0020463913    482607.67   -486918.95     10233076   0.70918631   0.55129027   -4.3321516   -4.1573793 
  340600  0.002049766    451403.02   -492675.41     10128314   0.70918631   0.55107035   -4.3321516   -4.1609254 
  340700 0.0020195487    459275.56   -518592.16     10115638   0.70918631   0.55154235   -4.3321516   -4.1592514 
  340800 0.0020673875    491188.01   -559152.22     10170359   0.70918631   0.55237941   -4.3321516   -4.1628284 
  340900 0.0020785761    543851.93   -537246.57     10053156   0.70918631   0.55474031   -4.3321516   -4.1658482 
  341000 0.0019938731    561246.26   -519313.81     10067122   0.70918631   0.55558955   -4.3321516    -4.165174 
  341100 0.0020253288    524951.43   -512192.83    9969830.2   0.70918631   0.55133205   -4.3321516   -4.1645311 
  341200 0.0020135886    536793.24   -466906.38     10079363   0.70918631   0.55365109   -4.3321516   -4.1684288 
  341300 0.0020153129    520216.58   -479326.98     10046357   0.70918631   0.54884103   -4.3321516   -4.1643895 
  341400 0.0020081984     546308.9    -511249.2     10055214   0.70918631   0.55491849   -4.3321516   -4.1671603 
  341500 0.0020016688    483712.31   -487541.33    9987547.2   0.70918631   0.55636734   -4.3321516   -4.1639526 
  341600 0.0020147177    474233.61   -449844.47    9898126.4   0.70918631   0.55672322   -4.3321516   -4.1663717 
  341700 0.0019934023    578734.94   -498740.48     10014694   0.70918631   0.55538734   -4.3321516     -4.16894 
  341800 0.0020237117    552975.17   -508520.53     10000372   0.70918631   0.55006511   -4.3321516   -4.1729838 
  341900 0.0020436782     580611.2   -545603.14     10034423   0.70918631   0.54847178   -4.3321516   -4.1697893 
  342000 0.0020201569    584276.53    -466458.9     10042400   0.70918631   0.54969543   -4.3321516   -4.1699129 
  342100 0.0020160928    535284.17   -523243.54    9985921.3   0.70918631   0.54894047   -4.3321516    -4.172296 
  342200  0.002053722    531419.99   -567108.54      9965244   0.70918631   0.54729042   -4.3321516   -4.1720406 
  342300 0.0020786243    521463.03   -565481.23    9997240.9   0.70918631   0.54817509   -4.3321516   -4.1741115 
  342400  0.002078697    527725.93   -586723.38    9932760.7   0.70918631   0.55061498   -4.3321516   -4.1755743 
  342500  0.002006451    576837.85   -578111.74    9969064.2   0.70918631   0.55260264   -4.3321516   -4.1783915 
  342600 0.0020125454    568034.04   -513549.34    9917653.1   0.70918631   0.55243513   -4.3321516   -4.1831124 
  342700  0.002041476    601446.52    -601712.8    9992545.7   0.70918631   0.55543798   -4.3321516   -4.1856187 
  342800 0.0021088016       546872   -585106.77    9970314.4   0.70918631   0.55184309   -4.3321516   -4.1887416 
  342900 0.0020684937    550322.51    -594632.7     10026118   0.70918631   0.55262036   -4.3321516   -4.1897277 
  343000  0.002046432    551346.41   -678845.05     10115494   0.70918631   0.55273344   -4.3321516   -4.1890711 
  343100 0.0019982742    525039.14   -645357.77     10020875   0.70918631   0.55351095   -4.3321516    -4.187984 
  343200 0.0020689165    465023.68   -663339.45     10120177   0.70918631   0.55195745   -4.3321516   -4.1895269 
  343300 0.0019463287    457039.94   -714990.06     10144119   0.70918631   0.55424367   -4.3321516   -4.1906601 
  343400 0.0020677441    389684.59   -718386.22     10154397   0.70918631   0.55482758   -4.3321516   -4.1880775 
  343500 0.0020630914    395881.38   -770982.61     10175950   0.70918631    0.5519166   -4.3321516   -4.1881138 
  343600 0.0020415196     431809.5   -750479.98     10220451   0.70918631   0.55878586   -4.3321516   -4.1893019 
  343700 0.0020488263    485634.02   -703372.83     10282490   0.70918631   0.55800406   -4.3321516   -4.1892488 
  343800 0.0020174435    463696.92   -719902.64     10226358   0.70918631   0.55818554   -4.3321516   -4.1850579 
  343900 0.0020896231    414632.41   -758946.44     10253039   0.70918631   0.55576736   -4.3321516   -4.1879478 
  344000 0.0019962916    440047.73   -758943.83     10282983   0.70918631   0.56034476   -4.3321516   -4.1870563 
  344100 0.0020018534    361259.69    -651509.5     10233815   0.70918631   0.56066321   -4.3321516   -4.1892931 
  344200 0.0020078987    414608.25   -660553.68     10276529   0.70918631   0.56099768   -4.3321516   -4.1879425 
  344300 0.0021285704    420179.01    -772095.7     10339903   0.70918631   0.55670183   -4.3321516   -4.1915841 
  344400 0.0020565904     408248.3   -733331.74     10232197   0.70918631   0.55656992   -4.3321516   -4.1919319 
  344500 0.0020351515    383050.41   -767924.57     10233761   0.70918631   0.55942685   -4.3321516   -4.1933004 
  344600 0.0020019237    349878.28   -727055.99     10260066   0.70918631   0.56605937   -4.3321516   -4.1935843 
  344700  0.002038585    353889.72   -754465.66     10258757   0.70918631    0.5688945   -4.3321516   -4.1938477 
  344800 0.0019959524    317690.33   -751633.83     10271814   0.70918631   0.56087044   -4.3321516   -4.1917862 
  344900 0.0020627521     350246.6   -690488.72     10326922   0.70918631   0.56809287   -4.3321516   -4.1950935 
  345000 0.0020136536    398945.81   -660394.64     10312904   0.70918631   0.57094303   -4.3321516   -4.2002093 
  345100 0.0019869365     341507.1   -732103.66     10234413   0.70918631   0.56818423   -4.3321516   -4.1953317 
  345200  0.001969652     344520.4    -679666.5     10229267   0.70918631   0.56684349   -4.3321516   -4.1935046 
  345300 0.0019872999    362002.33   -690944.18     10260922   0.70918631   0.56546687   -4.3321516    -4.193258 
  345400 0.0020478382    359343.72   -680929.35     10260940   0.70918631   0.56224929   -4.3321516   -4.1976008 
  345500 0.0019537607    384796.28   -676643.05     10254323   0.70918631   0.56034967   -4.3321516   -4.1985377 
  345600 0.0020503122    386251.23   -729904.31     10224398   0.70918631   0.55954355   -4.3321516   -4.1958203 
  345700 0.0019534637    382263.67   -738227.68     10251331   0.70918631   0.56099126   -4.3321516   -4.1943575 
  345800 0.0020533012    426944.77   -739416.79     10235534   0.70918631    0.5636522   -4.3321516   -4.1986327 
  345900 0.0020111752    429237.06   -727363.26     10235556   0.70918631   0.56559524   -4.3321516   -4.2005134 
  346000 0.0019767972    447803.37   -756418.78     10291275   0.70918631   0.56752438   -4.3321516    -4.201344 
  346100 0.0020626777    438553.75   -794320.09     10242123   0.70918631   0.56927807   -4.3321516   -4.1996846 
  346200 0.0020028954    448033.83    -748401.3     10313353   0.70918631   0.56590036   -4.3321516   -4.1999083 
  346300 0.0020217245    419660.39   -763886.25     10316565   0.70918631   0.56553693   -4.3321516   -4.2047468 
  346400 0.0020536539    400205.07   -758878.19     10213616   0.70918631   0.56864682   -4.3321516   -4.2022647 
  346500 0.0020518088    364529.53   -719232.91     10183254   0.70918631   0.56863176   -4.3321516   -4.2006829 
  346600 0.0020885104     369790.3   -712983.16     10229842   0.70918631   0.56686218   -4.3321516   -4.2050054 
  346700 0.0019987111    342079.06   -752033.06     10219930   0.70918631   0.57045906   -4.3321516   -4.2075692 
  346800 0.0020102033     378802.2   -715975.97     10197261   0.70918631   0.57096593   -4.3321516   -4.2059887 
  346900 0.0020695404    355837.15   -779956.48     10218182   0.70918631   0.57021638   -4.3321516   -4.2061956 
  347000 0.0020629134    363231.71   -741001.45     10296579   0.70918631   0.56655296   -4.3321516   -4.2080667 
  347100 0.0020999374    364793.72   -707712.55     10309148   0.70918631   0.56846141   -4.3321516   -4.2079529 
  347200 0.0020107971    373794.37   -662499.65     10293935   0.70918631    0.5699766   -4.3321516    -4.206664 
  347300 0.0020227559    370051.24   -657569.26     10207125   0.70918631   0.56689385   -4.3321516   -4.2060723 
  347400  0.002049018    350956.05   -710802.45     10205991   0.70918631   0.56686351   -4.3321516   -4.2042486 
  347500 0.0020668279    360013.09   -712465.84     10326897   0.70918631   0.56946277   -4.3321516   -4.2057372 
  347600 0.0019890078     360772.9   -756520.52     10285266   0.70918631   0.56717461   -4.3321516   -4.2094259 
  347700 0.0020612905    392098.43   -801265.87     10254535   0.70918631   0.56280847   -4.3321516   -4.2079422 
  347800   0.00204732    347688.58   -730900.32     10291920   0.70918631   0.56918402   -4.3321516   -4.2090789 
  347900 0.0020908002    349889.33    -762459.2     10314328   0.70918631   0.56878797   -4.3321516   -4.2103116 
  348000 0.0020944104    372300.22   -828689.37     10352102   0.70918631   0.56918279   -4.3321516   -4.2093617 
  348100 0.0020492329    342698.72   -755004.45     10329733   0.70918631   0.56553204   -4.3321516   -4.2111496 
  348200 0.0020079854    390909.75   -794275.27     10350351   0.70918631   0.56271105   -4.3321516   -4.2032865 
  348300  0.002033138    351065.76   -804537.33     10271476   0.70918631   0.56886296   -4.3321516   -4.2047482 
  348400 0.0020169822    356030.89   -826432.49     10255916   0.70918631   0.57118091   -4.3321516   -4.2061835 
  348500 0.0020210138    336133.02   -833010.23     10228920   0.70918631   0.57045016   -4.3321516   -4.2116329 
  348600 0.0020940612    397558.57   -756910.71     10371771   0.70918631   0.57381151   -4.3321516   -4.2093261 
  348700 0.0020191122    372861.73   -720482.31     10413397   0.70918631   0.57316246   -4.3321516   -4.2106412 
  348800  0.002036046    427302.73   -744532.22     10422624   0.70918631   0.57343512   -4.3321516   -4.2128748 
  348900 0.0020076118    373682.45   -775726.56     10483329   0.70918631   0.56790163   -4.3321516   -4.2117096 
  349000 0.0020406132     376659.9   -717732.81     10380081   0.70918631    0.5687436   -4.3321516   -4.2102185 
  349100 0.0020617159    314074.35   -711131.79     10380714   0.70918631   0.56622351   -4.3321516   -4.2079833 
  349200 0.0020559577    321153.94   -724477.12     10338728   0.70918631   0.56369697   -4.3321516   -4.2113419 
  349300 0.0020517544    352068.04   -761909.34     10299592   0.70918631   0.56754705   -4.3321516   -4.2108409 
  349400 0.0020497628    391765.05   -749542.36     10298233   0.70918631   0.56494993   -4.3321516   -4.2100662 
  349500  0.002101922     356740.8   -829840.17     10327888   0.70918631   0.56669806   -4.3321516   -4.2135672 
  349600 0.0020450628    330609.48   -766949.15     10420679   0.70918631   0.57135156   -4.3321516   -4.2111369 
  349700 0.0020172049     386650.2   -760769.18     10379202   0.70918631   0.56803723   -4.3321516   -4.2147088 
  349800  0.002008312    373184.91   -765452.31     10493833   0.70918631   0.57165115   -4.3321516   -4.2149773 
  349900  0.002037873    393456.06   -786684.43     10387342   0.70918631   0.57112401   -4.3321516   -4.2209952 
  350000 0.0020786659    365395.43   -819835.19     10356063   0.70918631   0.57040777   -4.3321516   -4.2244613 
  350100 0.0020450782    302458.02   -839060.75     10491301   0.70918631   0.57528628   -4.3321516    -4.228308 
  350200 0.0020379274    321935.18   -819542.96     10523187   0.70918631   0.57248918   -4.3321516   -4.2261857 
  350300 0.0020593663    315155.32    -789502.4     10454827   0.70918631    0.5768334   -4.3321516   -4.2247563 
  350400 0.0020522024    354830.39   -780559.89     10409407   0.70918631   0.57744861   -4.3321516   -4.2269361 
  350500 0.0020760733    333171.81    -778415.6     10450969   0.70918631   0.57360267   -4.3321516   -4.2279947 
  350600 0.0020145962    319251.73   -841538.85     10389419   0.70918631   0.57282979   -4.3321516   -4.2300956 
  350700 0.0020283036    255276.99   -835912.85     10389519   0.70918631   0.57272924   -4.3321516   -4.2290612 
  350800 0.0019881977     265171.7   -834577.22     10376714   0.70918631   0.57317527   -4.3321516   -4.2267574 
  350900  0.002066951    219044.99    -833388.7     10397770   0.70918631   0.57228731   -4.3321516   -4.2296747 
  351000 0.0020314717       220638   -824726.33     10461429   0.70918631   0.57517608   -4.3321516   -4.2271022 
  351100 0.0020821102    299286.31   -816121.93     10497327   0.70918631   0.57783889   -4.3321516    -4.225402 
  351200 0.0020663057    263433.85   -784253.18     10546663   0.70918631   0.57702391   -4.3321516    -4.223962 
  351300 0.0020343657    185615.79   -740250.09     10555147   0.70918631   0.57504706   -4.3321516   -4.2291084 
  351400 0.0019917685    257859.39   -763599.83     10492724   0.70918631   0.57737252   -4.3321516   -4.2291995 
  351500  0.002057437    258007.34   -766582.96     10468551   0.70918631   0.57666272   -4.3321516   -4.2319164 
  351600 0.0019498551    274918.23   -747262.33     10368634   0.70918631   0.58254566   -4.3321516    -4.232055 
  351700 0.0020416198    251379.39   -741187.45     10385321   0.70918631   0.58424969   -4.3321516   -4.2360757 
  351800 0.0020123861    217684.03   -724153.73     10308597   0.70918631   0.58446271   -4.3321516   -4.2389943 
  351900  0.002024069    286710.31    -749086.7     10273548   0.70918631   0.59196521   -4.3321516   -4.2375075 
  352000 0.0019942313    276637.92   -807825.93     10379298   0.70918631   0.59310369   -4.3321516   -4.2407224 
  352100 0.0020470384    335902.69   -738794.53     10350411   0.70918631   0.59305226   -4.3321516   -4.2437883 
  352200 0.0020032514    351998.36   -763425.27     10390927   0.70918631   0.59468224   -4.3321516   -4.2452408 
  352300 0.0020511078    341776.91   -747816.54     10350014   0.70918631   0.59039148   -4.3321516   -4.2424878 
  352400 0.0020402429    380960.01    -761575.4     10426068   0.70918631   0.59132748   -4.3321516   -4.2408019 
  352500 0.0020559582    337670.46   -749550.65     10284344   0.70918631   0.58880681   -4.3321516   -4.2453384 
  352600 0.0020565532    364294.86    -810344.1     10419022   0.70918631   0.59368032   -4.3321516   -4.2420544 
  352700 0.0019921999    353379.13   -750252.05     10347192   0.70918631   0.59457861   -4.3321516    -4.241542 
  352800 0.0020609314    365489.55   -673822.09     10341993   0.70918631   0.59429523   -4.3321516   -4.2442465 
  352900 0.0020319315    395552.01   -685349.49     10310180   0.70918631   0.59201726   -4.3321516   -4.2455331 
  353000 0.0020721085    375438.58   -744555.51     10300367   0.70918631   0.59403349   -4.3321516   -4.2484085 
  353100 0.0020294442    420324.78   -757092.21     10331163   0.70918631   0.59571462   -4.3321516   -4.2485013 
  353200 0.0020197108    419971.86   -802756.51     10301534   0.70918631   0.59521341   -4.3321516   -4.2514582 
  353300 0.0020546019    497145.31   -741192.35     10414541   0.70918631    0.5911432   -4.3321516   -4.2509912 
  353400 0.0020492178    432770.19   -722094.84     10438734   0.70918631   0.58856819   -4.3321516    -4.253401 
  353500 0.0020736689     498659.2   -665107.25     10374776   0.70918631   0.58582683   -4.3321516   -4.2539344 
  353600 0.0020472574    448234.44   -713930.33     10343325   0.70918631   0.58562143   -4.3321516   -4.2585167 
  353700  0.002042711    423208.13   -762298.54     10305031   0.70918631    0.5863803   -4.3321516   -4.2594896 
  353800 0.0020513414    375809.14   -740591.35     10249632   0.70918631   0.58305852   -4.3321516    -4.261073 
  353900 0.0020023055     394952.5   -765272.02     10224865   0.70918631   0.58097659   -4.3321516   -4.2613802 
  354000 0.0020038315    365301.75   -685288.07     10263439   0.70918631   0.58298837   -4.3321516   -4.2655714 
  354100 0.0020005353    361718.91   -747429.93     10318865   0.70918631   0.58615489   -4.3321516   -4.2692002 
  354200 0.0021146189    461014.26   -634537.17     10183138   0.70918631   0.58648189   -4.3321516   -4.2665136 
  354300 0.0020407385    488943.69   -685200.39     10289836   0.70918631   0.58783403   -4.3321516   -4.2687532 
  354400 0.0020700285     482669.5    -704199.7     10229106   0.70918631   0.58644865   -4.3321516   -4.2683044 
  354500 0.0020567132     502712.5   -679043.49     10148182   0.70918631   0.59016132   -4.3321516   -4.2710749 
  354600  0.002032817    468491.91   -644649.52     10098588   0.70918631   0.59557475   -4.3321516   -4.2701863 
  354700 0.0020452078    498558.86   -631417.56     10041512   0.70918631   0.58902538   -4.3321516   -4.2736748 
  354800 0.0020104289    502890.95   -564103.93     10000170   0.70918631   0.58689703   -4.3321516   -4.2792611 
  354900 0.0020278714    496621.53   -503537.49    9904957.4   0.70918631   0.59096796   -4.3321516   -4.2804554 
  355000 0.0019917961    549467.53   -401708.93    9868440.5   0.70918631   0.59105903   -4.3321516   -4.2818598 
  355100 0.0020411447    552812.23   -336615.23    9797036.5   0.70918631   0.59106354   -4.3321516   -4.2862137 
  355200 0.0020667815    503199.44   -349659.86    9836215.9   0.70918631   0.59035869   -4.3321516    -4.288949 
  355300  0.001990068    488889.28   -392400.75      9749880   0.70918631   0.58581973   -4.3321516   -4.2913483 
  355400 0.0019356139    512816.16   -374446.76    9677814.3   0.70918631   0.58500442   -4.3321516   -4.2946525 
  355500 0.0020085651    580625.06   -338121.09    9618128.7   0.70918631   0.58137532   -4.3321516   -4.2978622 
  355600  0.002000132     546854.7   -321563.98    9688471.7   0.70918631   0.57796312   -4.3321516   -4.3002008 
  355700   0.00209397    651775.11   -372362.22    9689800.5   0.70918631    0.5778893   -4.3321516    -4.308431 
  355800 0.0020223276    610983.69   -331431.74    9610987.1   0.70918631   0.57929764   -4.3321516   -4.3116103 
  355900  0.002000703    638929.41   -396282.93    9602256.2   0.70918631   0.57692851   -4.3321516   -4.3135224 
  356000 0.0019862389    620053.01   -363507.22    9584652.1   0.70918631     0.573215   -4.3321516   -4.3166432 
  356100 0.0019986975    576765.63   -355673.36    9593258.2   0.70918631   0.57285717   -4.3321516   -4.3200114 
  356200 0.0019923751    572867.22   -360146.37    9481240.2   0.70918631   0.56931568   -4.3321516   -4.3249074 
  356300 0.0020232234    587584.03   -375346.09    9641011.2   0.70918631   0.56780081   -4.3321516   -4.3298333 
  356400 0.0020582998    602181.21   -377900.55    9590034.8   0.70918631    0.5646584   -4.3321516   -4.3336576 
  356500 0.0019853503    621705.92   -312906.61    9453949.4   0.70918631   0.56623026   -4.3321516   -4.3357789 
  356600 0.0020631758    592028.24    -342041.4    9565103.1   0.70918631   0.55894381   -4.3321516   -4.3372374 
  356700 0.0019998134    567479.28   -252922.27      9502857   0.70918631    0.5552905   -4.3321516   -4.3383561 
  356800 0.0020425461    538959.11   -284076.56      9522430   0.70918631   0.54821499   -4.3321516   -4.3398595 
  356900 0.0020366815    534415.77   -291606.78    9519563.4   0.70918631   0.54872022   -4.3321516   -4.3452622 
  357000 0.0020721467    565817.62   -251837.81    9525625.1   0.70918631    0.5464032   -4.3321516   -4.3445891 
  357100 0.0020332257    581716.08   -300565.43    9527914.1   0.70918631   0.54615636   -4.3321516   -4.3481443 
  357200 0.0020702495    585379.44   -304300.95    9530310.6   0.70918631   0.54435154   -4.3321516   -4.3488955 
  357300 0.0020276849    609928.26   -303593.63    9510934.2   0.70918631   0.54267401   -4.3321516   -4.3501303 
  357400 0.0020037091    608539.43   -378987.83    9508428.4   0.70918631   0.53735686   -4.3321516   -4.3547288 
  357500 0.0019846173    604540.78   -419732.95    9530062.4   0.70918631   0.53609539   -4.3321516   -4.3596961 
  357600 0.0020452314    576778.37   -389387.53    9493978.7   0.70918631   0.53349567   -4.3321516   -4.3637923 
  357700 0.0020268374    627705.03   -384595.54    9510721.4   0.70918631   0.53846633   -4.3321516   -4.3646635 
  357800 0.0019851782    607246.44   -378368.51    9376888.8   0.70918631   0.53784822   -4.3321516   -4.3719329 
  357900 0.0020570209    662805.69   -448510.49    9311838.8   0.70918631   0.53252601   -4.3321516   -4.3714352 
  358000  0.002071481    636354.33    -382745.1    9412111.4   0.70918631   0.52990544   -4.3321516   -4.3698949 
  358100 0.0019815141    612311.01   -384594.94    9470621.3   0.70918631   0.52581902   -4.3321516   -4.3702423 
  358200 0.0020020048    591061.09   -413667.31    9406012.9   0.70918631   0.52689352   -4.3321516   -4.3717179 
  358300 0.0020724435    556963.36   -435087.49    9374441.1   0.70918631   0.52564712   -4.3321516   -4.3731779 
  358400 0.0020809054    585515.52   -415205.84    9469385.1   0.70918631    0.5247461   -4.3321516   -4.3783603 
  358500 0.0019713941    571492.07   -353060.13    9394610.7   0.70918631   0.51955579   -4.3321516   -4.3763606 
  358600 0.0020130796    662479.34   -411071.83    9439200.7   0.70918631   0.52422382   -4.3321516   -4.3798389 
  358700 0.0019935905    559155.16      -396000    9427950.7   0.70918631   0.52324983   -4.3321516   -4.3819962 
  358800 0.0020077376    620643.39   -444904.78    9348610.4   0.70918631   0.52077445   -4.3321516   -4.3885176 
  358900  0.001989895     609059.7   -419162.06    9399784.6   0.70918631   0.52050274   -4.3321516   -4.3877111 
  359000 0.0020554382    643456.63   -417812.38    9357139.5   0.70918631   0.51513552   -4.3321516   -4.3884384 
  359100 0.0020310844    597594.58   -438464.52    9370022.3   0.70918631   0.51261574   -4.3321516   -4.3919825 
  359200 0.0020399533    607416.17   -458051.54    9440743.6   0.70918631   0.51268664   -4.3321516   -4.3982299 
  359300 0.0020048655    609866.35   -478094.37      9425068   0.70918631   0.50970507   -4.3321516   -4.3975269 
  359400  0.002014253    581523.59   -456027.26    9324110.4   0.70918631    0.5099183   -4.3321516    -4.400433 
  359500 0.0020057754    573654.89   -485179.01      9426967   0.70918631    0.5109381   -4.3321516    -4.401771 
  359600 0.0020417365    576878.06   -506161.83    9410105.3   0.70918631   0.51434457   -4.3321516   -4.4024846 
  359700 0.0020735284    624304.08   -454114.08    9354481.7   0.70918631   0.51432975   -4.3321516   -4.4015631 
  359800 0.0019906509    614293.23   -450329.01    9369044.9   0.70918631   0.51766469   -4.3321516   -4.4012048 
  359900 0.0019906853    618791.41   -439467.16    9388338.8   0.70918631   0.51842075   -4.3321516   -4.4035713 
  360000  0.002009324    607183.83   -447326.96    9289702.4   0.70918631   0.51797344   -4.3321516   -4.4041836 
  360100 0.0020474672     608744.3   -457137.89    9290054.1   0.70918631   0.51883956   -4.3321516     -4.40138 
  360200 0.0020413077    632254.14   -429128.48    9405787.3   0.70918631   0.52529779   -4.3321516   -4.4018158 
  360300 0.0020127544    579053.03   -433230.46    9312665.3   0.70918631   0.52083156   -4.3321516   -4.4059472 
  360400 0.0019914613    538306.93   -489804.04    9360204.5   0.70918631   0.51776799   -4.3321516   -4.4066059 
  360500 0.0020068408    537367.43   -475629.51    9338701.5   0.70918631   0.51714932   -4.3321516   -4.4072074 
  360600 0.0020361492    527875.24   -446236.31    9258425.8   0.70918631   0.51292075   -4.3321516   -4.4035294 
  360700 0.0020238449    552282.07   -494985.32    9310756.6   0.70918631   0.51286201   -4.3321516   -4.4040067 
  360800 0.0020119037    464158.38   -502274.36    9393176.2   0.70918631   0.51173907   -4.3321516   -4.4037192 
  360900 0.0020051277    515392.29   -443633.49    9386737.4   0.70918631   0.51061604   -4.3321516    -4.401103 
  361000 0.0020378632    501250.89   -467787.26    9345616.4   0.70918631   0.51188859   -4.3321516   -4.4036813 
  361100 0.0020280081    525415.42   -498534.91    9338660.3   0.70918631   0.51240289   -4.3321516   -4.4032468 
  361200 0.0019786091    472975.46   -413900.16    9265651.5   0.70918631    0.5104183   -4.3321516   -4.4028399 
  361300 0.0020761858    529319.56   -480149.53    9291192.5   0.70918631   0.51256444   -4.3321516   -4.4059555 
  361400 0.0019891604    592290.11   -434206.42      9276280   0.70918631   0.50854915   -4.3321516   -4.4049391 
  361500 0.0020649001    572741.08   -460111.89    9236338.9   0.70918631   0.51010452   -4.3321516   -4.4042887 
  361600 0.0020464333    546398.08   -477914.54    9361282.6   0.70918631   0.50740664   -4.3321516   -4.4052084 
  361700 0.0019618645    537569.13   -479528.49    9397012.9   0.70918631    0.5083073   -4.3321516   -4.4075424 
  361800  0.002000497    570876.55   -464558.04    9423315.2   0.70918631   0.50402064   -4.3321516   -4.4095826 
  361900  0.002067454    492839.51   -445725.89    9373021.4   0.70918631   0.50061681   -4.3321516   -4.4101365 
  362000 0.0020255815    563908.74   -446042.81    9411868.9   0.70918631   0.50032202   -4.3321516   -4.4098947 
  362100 0.0020423055    513533.13   -456648.25    9282535.7   0.70918631   0.50198209   -4.3321516   -4.4113255 
  362200 0.0020201048    516338.59   -475713.75    9384122.9   0.70918631    0.4998123   -4.3321516    -4.414843 
  362300 0.0020352214    525211.14   -523189.32    9322698.7   0.70918631   0.49847201   -4.3321516   -4.4157584 
  362400 0.0020564329    516708.48   -435914.99    9372644.1   0.70918631   0.49806793   -4.3321516   -4.4198553 
  362500 0.0020400738     515904.4   -525880.41    9294838.4   0.70918631   0.50238674   -4.3321516   -4.4197895 
  362600 0.0019550341    495212.51   -473048.32    9248707.7   0.70918631   0.50188207   -4.3321516   -4.4210279 
  362700 0.0020702283    526098.57   -430196.67    9261782.9   0.70918631   0.50304915   -4.3321516   -4.4187707 
  362800 0.0019635456    559856.81   -448950.43    9454454.3   0.70918631   0.49908271   -4.3321516   -4.4203129 
  362900 0.0020855369    514812.97   -500918.46    9235988.5   0.70918631   0.50238636   -4.3321516    -4.423135 
  363000 0.0020763988    531709.52   -486653.38    9223109.1   0.70918631   0.50406181   -4.3321516   -4.4231648 
  363100 0.0020209927    517673.55   -509656.45    9264563.1   0.70918631   0.50105168   -4.3321516     -4.42556 
  363200 0.0020743558     518070.4   -513029.75    9286453.2   0.70918631   0.49780707   -4.3321516   -4.4300045 
  363300 0.0020172051    467510.84   -499600.56    9300662.3   0.70918631   0.49811189   -4.3321516   -4.4284287 
  363400 0.0020680712    489391.48   -537168.41    9316869.7   0.70918631   0.49565379   -4.3321516    -4.422521 
  363500 0.0020270448    502267.42   -541400.49    9258976.4   0.70918631   0.50127669   -4.3321516   -4.4223644 
  363600 0.0019925384    514167.48   -536646.92    9313696.2   0.70918631   0.49761894   -4.3321516   -4.4230202 
  363700 0.0020566418    536297.74   -485968.21    9296773.2   0.70918631   0.49638275   -4.3321516   -4.4249862 
  363800  0.002054405    499812.31   -525169.65    9310959.4   0.70918631    0.4956022   -4.3321516   -4.4262587 
  363900  0.002022876     511744.6    -474625.6    9181768.1   0.70918631   0.49578815   -4.3321516   -4.4233039 
  364000  0.002083096    509561.79   -483382.62      9261858   0.70918631   0.49445376   -4.3321516   -4.4256041 
  364100 0.0019707648    517972.37   -486820.04    9342627.6   0.70918631    0.4911334   -4.3321516   -4.4257561 
  364200  0.002038837    483920.54   -459010.53    9274282.2   0.70918631   0.49137877   -4.3321516   -4.4271469 
  364300  0.002090903    487712.46   -476867.73    9210604.9   0.70918631   0.48855902   -4.3321516   -4.4311134 
  364400 0.0020591596    483966.38   -493371.63    9189784.6   0.70918631   0.48807303   -4.3321516   -4.4325894 
  364500 0.0020658854    500288.83   -507335.77      9157954   0.70918631   0.48939985   -4.3321516   -4.4248959 
  364600 0.0020001786    498678.36   -512137.72    9192976.9   0.70918631   0.48935209   -4.3321516   -4.4223105 
  364700  0.001990014     524631.1   -469964.12    9265053.1   0.70918631   0.48723512   -4.3321516    -4.422325 
  364800 0.0020204872    488441.07   -474347.93    9186507.2   0.70918631   0.48639805   -4.3321516   -4.4215812 
  364900 0.0020230559    489866.23   -488710.57    9235790.4   0.70918631   0.48945568   -4.3321516   -4.4215608 
  365000 0.0020798123    453688.18   -448453.74      9219656   0.70918631   0.49071677   -4.3321516   -4.4221889 
  365100 0.0020975293    537168.48   -473412.24    9265671.8   0.70918631   0.49054106   -4.3321516   -4.4201416 
  365200 0.0020494524    473413.81   -455653.63    9195557.1   0.70918631   0.49034469   -4.3321516   -4.4185843 
  365300 0.0020464519    490282.57   -426052.06    9168537.3   0.70918631   0.48594457   -4.3321516   -4.4219147 
  365400 0.0020368824    453758.59   -462925.09    9135159.7   0.70918631   0.48480319   -4.3321516   -4.4208779 
  365500 0.0020572645    513078.58   -475128.45    9173924.1   0.70918631   0.49246497   -4.3321516   -4.4212515 
  365600  0.002016236    518363.18    -488320.6      9141176   0.70918631   0.49291673   -4.3321516   -4.4196788 
  365700 0.0020644327    475616.81   -430538.71    9229236.6   0.70918631    0.4909355   -4.3321516   -4.4242718 
  365800  0.002000633    487126.03   -438853.86    9234027.5   0.70918631   0.49047551   -4.3321516    -4.423053 
  365900 0.0021034332    473207.93   -519705.22    9227703.8   0.70918631   0.48687236   -4.3321516   -4.4263087 
  366000 0.0020460082    460062.26   -493845.99      9374896   0.70918631   0.48483951   -4.3321516   -4.4249186 
  366100 0.0020368763    462595.35   -474764.61    9250406.7   0.70918631    0.4824246   -4.3321516   -4.4217831 
  366200 0.0020169614    452855.16   -476158.05    9355069.3   0.70918631   0.47858539   -4.3321516   -4.4211396 
  366300 0.0020541987    502238.49   -434150.91    9333758.2   0.70918631   0.47403653   -4.3321516   -4.4214807 
  366400 0.0020242089    531484.08   -450115.84    9272919.2   0.70918631   0.47050695   -4.3321516    -4.422111 
  366500  0.002020399    508041.35   -457273.98    9202990.4   0.70918631   0.46873269   -4.3321516   -4.4158466 
  366600 0.0019911716    499284.17   -463482.37    9248211.8   0.70918631    0.4697613   -4.3321516   -4.4147991 
  366700 0.0020007445    497698.23   -506265.43    9229907.1   0.70918631   0.47226066   -4.3321516   -4.4159763 
  366800 0.0020292623    471602.72   -486519.83    9228590.8   0.70918631   0.47106545   -4.3321516   -4.4155979 
  366900 0.0020640649    441875.86   -482571.36    9295951.6   0.70918631   0.47429105   -4.3321516   -4.4125322 
  367000 0.0020590856    434535.53   -441513.29    9336850.9   0.70918631   0.47131837   -4.3321516   -4.4112498 
  367100 0.0020557347    487482.47   -449476.26    9304579.4   0.70918631   0.47020924   -4.3321516   -4.4094499 
  367200 0.0019791465    496922.72    -467929.4    9216426.9   0.70918631   0.46856321   -4.3321516   -4.4095934 
  367300 0.0019558523    473331.39    -458600.7    9378061.4   0.70918631   0.47086022   -4.3321516    -4.407846 
  367400 0.0020097704    467855.75   -421084.88    9223237.2   0.70918631   0.47141962   -4.3321516   -4.4056831 
  367500 0.0020476618    502860.22   -428585.14    9316101.4   0.70918631   0.47155396   -4.3321516   -4.4099819 
  367600 0.0020684571    482707.02   -434987.32    9213438.9   0.70918631   0.47132598   -4.3321516   -4.4165605 
  367700 0.0019880665    465962.77   -475682.74    9195925.6   0.70918631   0.46599644   -4.3321516   -4.4152864 
  367800 0.0020712964    464966.96   -473497.35    9249727.2   0.70918631   0.46454145   -4.3321516   -4.4181741 
  367900 0.0020401246    445324.68   -422907.33    9193405.7   0.70918631   0.46058773   -4.3321516   -4.4151204 
  368000 0.0019979286    498229.28   -384093.19    9221870.1   0.70918631    0.4651511   -4.3321516   -4.4129041 
  368100 0.0019628081    481724.79   -454416.24      9123982   0.70918631   0.46428996   -4.3321516   -4.4143183 
  368200 0.0020599318    505114.67   -415186.77    9105892.5   0.70918631   0.46428306   -4.3321516    -4.414116 
  368300 0.0020583651    446911.84   -457560.22    9029496.7   0.70918631   0.46784453   -4.3321516   -4.4153101 
  368400 0.0020290054    418593.35   -452222.79    9112241.2   0.70918631   0.46714944   -4.3321516   -4.4137992 
  368500 0.0020606696    421783.13   -414235.91    9108008.9   0.70918631   0.46990414   -4.3321516   -4.4134347 
  368600 0.0020357438    465893.86   -508829.89    9174821.6   0.70918631   0.47070085   -4.3321516   -4.4131692 
  368700 0.0020916247    442778.77    -503992.5      9200276   0.70918631   0.46803179   -4.3321516   -4.4135236 
  368800 0.0020614832    442937.11   -464981.46    9038099.3   0.70918631    0.4670548   -4.3321516    -4.409566 
  368900 0.0020369913    453862.62   -554693.74    9137835.2   0.70918631   0.46424879   -4.3321516   -4.4137274 
  369000 0.0020177349    408213.07   -458929.43    9010594.3   0.70918631   0.46133714   -4.3321516   -4.4159393 
  369100 0.0020685881    428004.34   -513177.53    9218898.2   0.70918631   0.46179835   -4.3321516    -4.413572 
  369200 0.0020442036    450045.02   -511079.65    9158939.6   0.70918631   0.46119919   -4.3321516   -4.4126229 
  369300 0.0019967943    450290.25   -481245.83    9178345.5   0.70918631    0.4612318   -4.3321516    -4.415138 
  369400 0.0020488225    417293.61   -402814.08    9156072.9   0.70918631    0.4571998   -4.3321516   -4.4141729 
  369500 0.0019903753     425514.2   -420233.06    9213356.5   0.70918631   0.45658258   -4.3321516   -4.4153616 
  369600  0.002024838    427628.79   -450469.62    9186209.9   0.70918631   0.45218531   -4.3321516   -4.4143754 
  369700  0.002071011    445217.41   -435400.03    9144765.1   0.70918631   0.45481832   -4.3321516   -4.4146387 
  369800 0.0020151641    382138.24   -475344.03    9058846.2   0.70918631   0.45925157   -4.3321516   -4.4134762 
  369900 0.0020302624    362611.58   -435115.94    9013448.7   0.70918631   0.45689985   -4.3321516   -4.4162657 
  370000 0.0020739676    385339.24   -466208.22    8963167.6   0.70918631   0.45322939   -4.3321516   -4.4160627 
  370100 0.0020593223    434690.87    -431235.8      9047815   0.70918631   0.45614743   -4.3321516   -4.4153034 
  370200 0.0019861574    379344.62   -460530.49    9027428.7   0.70918631   0.45670849   -4.3321516   -4.4136631 
  370300 0.0020144194    363387.42   -429986.71    8961378.2   0.70918631    0.4530114   -4.3321516   -4.4100989 
  370400 0.0020210422    450110.06   -443000.89    9108997.2   0.70918631   0.45687976   -4.3321516   -4.4147736 
  370500 0.0020328244    438186.98   -452606.33      9060510   0.70918631    0.4570026   -4.3321516   -4.4100454 
  370600 0.0020561884    460228.16   -477417.29    9030245.7   0.70918631   0.45574164   -4.3321516   -4.4139969 
  370700 0.0020379893     470499.3   -428368.98      9088663   0.70918631   0.45454392   -4.3321516   -4.4157673 
  370800 0.0020669514    483227.88    -489544.7    9194823.4   0.70918631   0.45448825   -4.3321516   -4.4166818 
  370900 0.0020930665    448742.01   -471140.02    9139500.7   0.70918631   0.45410034   -4.3321516   -4.4159002 
  371000 0.0020517938       420026   -496220.95      9187299   0.70918631   0.45121024   -4.3321516   -4.4207425 
  371100 0.0020931014    477875.31   -467548.97    9075642.3   0.70918631   0.45193167   -4.3321516   -4.4235839 
  371200  0.002006185    428429.32   -486181.46    9228198.9   0.70918631   0.45576031   -4.3321516   -4.4238006 
  371300 0.0020235354     421680.1   -460444.58    9184989.5   0.70918631   0.45608263   -4.3321516   -4.4225796 
  371400 0.0020234632     401116.4   -481792.27    9134971.7   0.70918631   0.45784351   -4.3321516   -4.4215693 
  371500 0.0020108583    481540.44    -418747.3    9191026.9   0.70918631   0.45945512   -4.3321516   -4.4223904 
  371600 0.0020154534    461078.52   -412457.41    9185569.3   0.70918631   0.45726968   -4.3321516   -4.4206516 
  371700 0.0020279397    444548.63   -436680.86    9179300.9   0.70918631   0.45864246   -4.3321516   -4.4221976 
  371800 0.0019692495    394083.82    -445084.1    9279435.9   0.70918631   0.45658193   -4.3321516   -4.4250523 
  371900 0.0020241028    404269.18   -490728.47    9203595.8   0.70918631   0.45381691   -4.3321516    -4.425833 
  372000 0.0020294364       402410   -449865.55    9091258.9   0.70918631    0.4524804   -4.3321516   -4.4267485 
  372100 0.0020505039    321698.52   -494044.81    9109824.5   0.70918631    0.4512015   -4.3321516   -4.4287076 
  372200 0.0019802556    361039.94   -464752.27    9157251.9   0.70918631   0.45113983   -4.3321516   -4.4287716 
  372300 0.0020234828    388076.72   -488806.59    9149928.7   0.70918631   0.45903409   -4.3321516   -4.4317766 
  372400 0.0020458813    441685.65    -500194.3    9149502.7   0.70918631   0.46060201   -4.3321516   -4.4292936 
  372500 0.0019638757    405340.19   -488890.87    9157831.2   0.70918631   0.45786993   -4.3321516   -4.4251635 
  372600 0.0020523207    398770.88   -434657.76    9043670.5   0.70918631   0.45753374   -4.3321516   -4.4240631 
  372700 0.0020047697    423105.03    -466900.1    9043194.7   0.70918631   0.45784308   -4.3321516   -4.4245956 
  372800 0.0020676335    405524.97   -452434.74      9113727   0.70918631   0.46025025   -4.3321516   -4.4237783 
  372900 0.0020500123    443711.97   -427270.14    9081420.6   0.70918631    0.4604354   -4.3321516   -4.4227532 
  373000 0.0019848298    445172.03   -432532.95    8965731.9   0.70918631   0.45604182   -4.3321516   -4.4249873 
Loop time of 116.057 on 1 procs for 59000 steps with 3500 atoms

99.8% CPU use with 1 MPI tasks x no OpenMP threads

MPI task timing breakdown:
Section |  min time  |  avg time  |  max time  |%varavg| %total
---------------------------------------------------------------
Pair    | 104.48     | 104.48     | 104.48     |   0.0 | 90.02
Neigh   | 0.71002    | 0.71002    | 0.71002    |   0.0 |  0.61
Comm    | 0.0078933  | 0.0078933  | 0.0078933  |   0.0 |  0.01
Output  | 0.77864    | 0.77864    | 0.77864    |   0.0 |  0.67
Modify  | 9.5684     | 9.5684     | 9.5684     |   0.0 |  8.24
Other   |            | 0.5159     |            |       |  0.44

Nlocal:        3500.00 ave        3500 max        3500 min
Histogram: 1 0 0 0 0 0 0 0 0 0
Nghost:        0.00000 ave           0 max           0 min
Histogram: 1 0 0 0 0 0 0 0 0 0
Neighs:        25980.0 ave       25980 max       25980 min
Histogram: 1 0 0 0 0 0 0 0 0 0
FullNghs:      0.00000 ave           0 max           0 min
Histogram: 1 0 0 0 0 0 0 0 0 0

Total # of neighbors = 25980
Ave neighs/atom = 7.4228571
Neighbor list builds = 112
Dangerous builds = 0
unfix indn
variable y equal vdisplace(v_z_ind_low,1)
fix  indn all indent 500000 sphere v_nuc_cmx v_nuc_cmy v_y 5 side out units box
run 15000
WARNING: One or more atoms are time integrated more than once (../modify.cpp:285)
Neighbor list info ...
  update every 1 steps, delay 5 steps, check yes
  max neighbors/atom: 2000, page size: 100000
  master list distance cutoff = 15.45235
  ghost atom cutoff = 15.45235
  binsize = 7.726175, bins = 26 26 11
  5 neighbor lists, perpetual/occasional/extra = 4 1 0
  (1) pair semEMp, perpetual, skip from (5)
      attributes: half, newton off
      pair build: skip
      stencil: none
      bin: none
  (2) pair semNucM, perpetual, skip from (5)
      attributes: half, newton off
      pair build: skip
      stencil: none
      bin: none
  (3) pair lj/cut, perpetual, skip from (5)
      attributes: half, newton off
      pair build: skip
      stencil: none
      bin: none
  (4) compute coord/atom, occasional
      attributes: full, newton off
      pair build: full/bin/atomonly
      stencil: full/bin/3d
      bin: standard
  (5) neighbor class addition, perpetual
      attributes: half, newton off
      pair build: half/bin/newtoff
      stencil: half/bin/3d/newtoff
      bin: standard
Per MPI rank memory allocation (min/avg/max) = 11.73 | 11.73 | 11.73 Mbytes
Step Temp f_indn[1] f_indn[2] f_indn[3] v_nuc_cmx c_nuc_centreofmass[1] v_nuc_cmy c_nuc_centreofmass[2] 
  373000 0.0020482774    445172.03   -432532.95    8965731.9   0.70918631   0.45604182   -4.3321516   -4.4249873 
  373100 0.0020417205    409226.07    -437745.9    8060796.9   0.70918631   0.45880685   -4.3321516   -4.4250869 
  373200 0.0020307467    399999.27   -386838.79    7283975.8   0.70918631   0.45952482   -4.3321516   -4.4251707 
  373300 0.0020036839    391982.58   -363744.17      6536972   0.70918631   0.45876339   -4.3321516   -4.4251862 
  373400 0.0020493925    369866.88   -353585.47    5779991.2   0.70918631   0.45764436   -4.3321516   -4.4268207 
  373500 0.0019484552    356816.61   -355775.06    5206592.5   0.70918631   0.46103355   -4.3321516   -4.4222894 
  373600 0.0020038847    264245.84   -322280.24    4515412.8   0.70918631    0.4606974   -4.3321516   -4.4246523 
  373700 0.0020169145    308019.87   -312217.69      3902711   0.70918631   0.46090382   -4.3321516   -4.4251106 
  373800 0.0020115213    267195.14    -298563.1    3380934.4   0.70918631   0.46174671   -4.3321516   -4.4283239 
  373900 0.0019835943    244913.12   -259139.83    2892030.4   0.70918631   0.46283867   -4.3321516   -4.4278528 
  374000 0.0019997135     226699.4   -220784.58    2409369.1   0.70918631   0.45748137   -4.3321516   -4.4291643 
  374100 0.0020127933    201638.87   -172716.49    1968628.1   0.70918631   0.45749611   -4.3321516   -4.4303947 
  374200 0.0020455123    170965.46   -157888.06    1625916.3   0.70918631   0.45819974   -4.3321516   -4.4321151 
  374300 0.0020282086    146021.85   -123455.53    1296683.3   0.70918631   0.45730802   -4.3321516   -4.4317896 
  374400 0.0021013904    135640.24   -80499.209    977190.42   0.70918631   0.46062407   -4.3321516   -4.4309672 
  374500 0.0020307475    110915.79   -61364.735    751471.81   0.70918631     0.464382   -4.3321516   -4.4307257 
  374600 0.0020537725    99990.467   -31224.647    546343.99   0.70918631   0.46445345   -4.3321516   -4.4252249 
  374700  0.002026965    75074.891   -16093.048       378931   0.70918631   0.45979324   -4.3321516   -4.4238699 
  374800 0.0020626635    57783.744   -5576.4843    231861.79   0.70918631   0.46257554   -4.3321516   -4.4248001 
  374900 0.0020783683     44498.63   -3179.3171    147412.72   0.70918631   0.46783819   -4.3321516   -4.4261707 
  375000 0.0020481093    26554.769   -2701.3857    83329.986   0.70918631   0.47062056   -4.3321516   -4.4259153 
  375100 0.0020184545    15002.705   -2605.0676    46190.775   0.70918631   0.46975581   -4.3321516   -4.4294634 
  375200 0.0020774373    7269.4922   -3056.9633        20355   0.70918631   0.47359602   -4.3321516   -4.4320271 
  375300 0.0020469388    2926.6737   -1440.0199    8363.8657   0.70918631     0.473508   -4.3321516   -4.4344706 
  375400 0.0020152443    647.85734   -321.29041    1873.6442   0.70918631   0.47388919   -4.3321516   -4.4274605 
  375500 0.0020160351    40.705234    -20.57283    120.28796   0.70918631   0.47362779   -4.3321516   -4.4307819 
  375600 0.0019901844            0            0            0   0.70918631   0.47590392   -4.3321516    -4.426703 
  375700 0.0020907875            0            0            0   0.70918631   0.47435506   -4.3321516   -4.4260822 
  375800 0.0020104029            0            0            0   0.70918631   0.47331991   -4.3321516   -4.4300312 
  375900 0.0020165751            0            0            0   0.70918631   0.47825902   -4.3321516   -4.4304986 
  376000 0.0020210621            0            0            0   0.70918631   0.48057254   -4.3321516   -4.4306441 
  376100  0.002030554            0            0            0   0.70918631   0.47766683   -4.3321516   -4.4304807 
  376200 0.0020188249            0            0            0   0.70918631   0.47940183   -4.3321516   -4.4306189 
  376300  0.001966782            0            0            0   0.70918631   0.48302767   -4.3321516   -4.4280971 
  376400 0.0020484567            0            0            0   0.70918631   0.48598471   -4.3321516   -4.4277934 
  376500 0.0020219346            0            0            0   0.70918631   0.48856727   -4.3321516   -4.4313808 
  376600  0.002066423            0            0            0   0.70918631   0.48463039   -4.3321516   -4.4291311 
  376700 0.0021201521            0            0            0   0.70918631   0.48480941   -4.3321516   -4.4263386 
  376800 0.0020923804            0            0            0   0.70918631   0.48052319   -4.3321516   -4.4259544 
  376900 0.0019873715            0            0            0   0.70918631   0.47793238   -4.3321516   -4.4194769 
  377000 0.0020550762            0            0            0   0.70918631   0.48010993   -4.3321516   -4.4196994 
  377100 0.0020337678            0            0            0   0.70918631   0.47699794   -4.3321516   -4.4176001 
  377200 0.0021379433            0            0            0   0.70918631   0.47941453   -4.3321516   -4.4166798 
  377300 0.0020215534            0            0            0   0.70918631   0.47979578   -4.3321516   -4.4162757 
  377400 0.0020112347            0            0            0   0.70918631   0.48207736   -4.3321516   -4.4160657 
  377500  0.002042629            0            0            0   0.70918631   0.48459077   -4.3321516   -4.4158139 
  377600 0.0020203829            0            0            0   0.70918631   0.48049061   -4.3321516    -4.415153 
  377700 0.0020120041            0            0            0   0.70918631   0.48447172   -4.3321516   -4.4184015 
  377800 0.0020625587            0            0            0   0.70918631   0.48340348   -4.3321516   -4.4185264 
  377900 0.0020867967            0            0            0   0.70918631   0.48449589   -4.3321516    -4.417296 
  378000 0.0019990338            0            0            0   0.70918631   0.48130608   -4.3321516   -4.4165563 
  378100 0.0019564689            0            0            0   0.70918631   0.48358777   -4.3321516    -4.415199 
  378200 0.0020596087            0            0            0   0.70918631   0.48776025   -4.3321516   -4.4131664 
  378300 0.0020437163            0            0            0   0.70918631   0.48943346   -4.3321516   -4.4109737 
  378400 0.0020773188            0            0            0   0.70918631   0.48872778   -4.3321516   -4.4118051 
  378500 0.0020653877            0            0            0   0.70918631   0.48637776   -4.3321516   -4.4098101 
  378600 0.0021196235            0            0            0   0.70918631   0.48684548   -4.3321516   -4.4117302 
  378700 0.0020660871            0            0            0   0.70918631   0.48912917   -4.3321516   -4.4086148 
  378800 0.0021254877            0            0            0   0.70918631   0.49194874   -4.3321516   -4.4068922 
  378900 0.0019599695            0            0            0   0.70918631   0.49120285   -4.3321516   -4.4071328 
  379000 0.0020263493            0            0            0   0.70918631   0.48987895   -4.3321516   -4.4049037 
  379100 0.0020481136            0            0            0   0.70918631   0.49237403   -4.3321516   -4.4005602 
  379200  0.002067704            0            0            0   0.70918631   0.49422501   -4.3321516   -4.3964123 
  379300 0.0020710491            0            0            0   0.70918631   0.49257175   -4.3321516   -4.4001862 
  379400  0.001981013            0            0            0   0.70918631   0.49057963   -4.3321516   -4.3983042 
  379500 0.0020015687            0            0            0   0.70918631   0.49041213   -4.3321516   -4.4031306 
  379600 0.0020002928            0            0            0   0.70918631    0.4890755   -4.3321516   -4.3993831 
  379700 0.0020700418            0            0            0   0.70918631   0.49295695   -4.3321516   -4.4041258 
  379800 0.0020051662            0            0            0   0.70918631   0.49470568   -4.3321516   -4.4027922 
  379900 0.0020113526            0            0            0   0.70918631   0.49798231   -4.3321516   -4.4025363 
  380000 0.0020607259            0            0            0   0.70918631   0.49459658   -4.3321516   -4.4017327 
  380100 0.0019868853            0            0            0   0.70918631   0.49162647   -4.3321516   -4.3994854 
  380200 0.0020081978            0            0            0   0.70918631   0.49005463   -4.3321516   -4.3949216 
  380300 0.0019928223            0            0            0   0.70918631   0.49160169   -4.3321516   -4.3972632 
  380400 0.0020447033            0            0            0   0.70918631   0.49326932   -4.3321516   -4.3961704 
  380500 0.0019717843            0            0            0   0.70918631     0.494639   -4.3321516    -4.396431 
  380600 0.0020152128            0            0            0   0.70918631   0.49886349   -4.3321516   -4.3952606 
  380700 0.0020658157            0            0            0   0.70918631   0.50066333   -4.3321516   -4.3889355 
  380800 0.0020179177            0            0            0   0.70918631   0.49763515   -4.3321516    -4.390975 
  380900 0.0020858887            0            0            0   0.70918631     0.499999   -4.3321516   -4.3929548 
  381000 0.0019583708            0            0            0   0.70918631   0.49902855   -4.3321516   -4.3888224 
  381100 0.0020593785            0            0            0   0.70918631   0.49792676   -4.3321516   -4.3884398 
  381200 0.0020009595            0            0            0   0.70918631   0.49716131   -4.3321516    -4.384122 
  381300 0.0020524216            0            0            0   0.70918631   0.49846709   -4.3321516   -4.3849924 
  381400 0.0020299815            0            0            0   0.70918631   0.50046654   -4.3321516   -4.3818085 
  381500 0.0019909863            0            0            0   0.70918631   0.49952863   -4.3321516   -4.3773014 
  381600 0.0019429648            0            0            0   0.70918631   0.50114599   -4.3321516   -4.3745244 
  381700 0.0020570879            0            0            0   0.70918631   0.50330263   -4.3321516   -4.3748985 
  381800 0.0020553611            0            0            0   0.70918631   0.50207732   -4.3321516   -4.3751841 
  381900 0.0020909222            0            0            0   0.70918631   0.50482002   -4.3321516   -4.3737841 
  382000 0.0020159028            0            0            0   0.70918631   0.50580688   -4.3321516   -4.3722536 
  382100 0.0020202827            0            0            0   0.70918631   0.50478172   -4.3321516   -4.3753602 
  382200 0.0020051236            0            0            0   0.70918631   0.50640517   -4.3321516   -4.3757723 
  382300 0.0020144919            0            0            0   0.70918631   0.50603939   -4.3321516   -4.3735008 
  382400 0.0020413116            0            0            0   0.70918631   0.50494507   -4.3321516   -4.3760212 
  382500 0.0020706385            0            0            0   0.70918631   0.49748981   -4.3321516   -4.3738017 
  382600 0.0019213214            0            0            0   0.70918631   0.49858594   -4.3321516   -4.3702146 
  382700 0.0020680615            0            0            0   0.70918631    0.4982721   -4.3321516   -4.3660784 
  382800 0.0020398023            0            0            0   0.70918631   0.49704339   -4.3321516   -4.3702244 
  382900 0.0020820383            0            0            0   0.70918631   0.49390661   -4.3321516   -4.3726411 
  383000 0.0020579111            0            0            0   0.70918631   0.49279351   -4.3321516    -4.369116 
  383100 0.0019537362            0            0            0   0.70918631   0.49658872   -4.3321516   -4.3644664 
  383200 0.0020879091            0            0            0   0.70918631   0.49487087   -4.3321516   -4.3671674 
  383300 0.0020738191            0            0            0   0.70918631    0.4910397   -4.3321516   -4.3659284 
  383400 0.0020548435            0            0            0   0.70918631    0.4923836   -4.3321516   -4.3620052 
  383500 0.0021259424            0            0            0   0.70918631   0.49400351   -4.3321516    -4.359535 
  383600 0.0019304159            0            0            0   0.70918631    0.4930205   -4.3321516   -4.3588481 
  383700  0.002043677            0            0            0   0.70918631   0.49072461   -4.3321516   -4.3573032 
  383800 0.0020140446            0            0            0   0.70918631   0.48611841   -4.3321516    -4.352693 
  383900 0.0020713886            0            0            0   0.70918631   0.48959155   -4.3321516   -4.3510208 
  384000 0.0020281932            0            0            0   0.70918631   0.48836738   -4.3321516   -4.3469762 
  384100 0.0020175869            0            0            0   0.70918631     0.488828   -4.3321516   -4.3431384 
  384200  0.002030345            0            0            0   0.70918631   0.49551725   -4.3321516   -4.3360522 
  384300 0.0020639253            0            0            0   0.70918631   0.49776394   -4.3321516   -4.3396188 
  384400    0.0020554            0            0            0   0.70918631   0.49762187   -4.3321516   -4.3393844 
  384500 0.0020629831            0            0            0   0.70918631   0.49967182   -4.3321516   -4.3386893 
  384600 0.0020651578            0            0            0   0.70918631   0.49710399   -4.3321516   -4.3428015 
  384700 0.0020289375            0            0            0   0.70918631    0.4902808   -4.3321516   -4.3437993 
  384800 0.0020331157            0            0            0   0.70918631   0.48947565   -4.3321516   -4.3425262 
  384900 0.0020830611            0            0            0   0.70918631   0.49195689   -4.3321516   -4.3428343 
  385000 0.0020624676            0            0            0   0.70918631   0.49416298   -4.3321516   -4.3411185 
  385100 0.0020647152            0            0            0   0.70918631   0.49683972   -4.3321516   -4.3393216 
  385200 0.0020877213            0            0            0   0.70918631   0.49587952   -4.3321516   -4.3460066 
  385300 0.0020959452            0            0            0   0.70918631    0.4985053   -4.3321516   -4.3443177 
  385400 0.0019762298            0            0            0   0.70918631   0.49714191   -4.3321516   -4.3433332 
  385500  0.002035437            0            0            0   0.70918631   0.50157019   -4.3321516   -4.3433998 
  385600 0.0020764134            0            0            0   0.70918631   0.49977521   -4.3321516   -4.3444466 
  385700 0.0020451339            0            0            0   0.70918631   0.50217195   -4.3321516   -4.3444548 
  385800  0.002051849            0            0            0   0.70918631   0.50077472   -4.3321516   -4.3436475 
  385900 0.0020321133            0            0            0   0.70918631   0.49887385   -4.3321516   -4.3476883 
  386000 0.0021009411            0            0            0   0.70918631   0.49844517   -4.3321516   -4.3490892 
  386100 0.0020651884            0            0            0   0.70918631     0.498542   -4.3321516   -4.3472785 
  386200 0.0021259797            0            0            0   0.70918631   0.49392502   -4.3321516   -4.3453695 
  386300 0.0020422333            0            0            0   0.70918631   0.50112922   -4.3321516   -4.3470705 
  386400 0.0020353646            0            0            0   0.70918631   0.49701593   -4.3321516   -4.3433913 
  386500 0.0021041445            0            0            0   0.70918631    0.4982719   -4.3321516   -4.3428267 
  386600 0.0019898073            0            0            0   0.70918631   0.49913824   -4.3321516   -4.3396462 
  386700 0.0020406432            0            0            0   0.70918631   0.50161081   -4.3321516   -4.3352558 
  386800 0.0020427506            0            0            0   0.70918631   0.50154896   -4.3321516   -4.3365543 
  386900 0.0020152577            0            0            0   0.70918631   0.49844558   -4.3321516   -4.3349154 
  387000 0.0020393253            0            0            0   0.70918631   0.49661036   -4.3321516   -4.3355792 
  387100 0.0020352209            0            0            0   0.70918631   0.49655139   -4.3321516   -4.3313351 
  387200 0.0020227785            0            0            0   0.70918631   0.49559536   -4.3321516   -4.3251635 
  387300 0.0020031737            0            0            0   0.70918631   0.49527401   -4.3321516   -4.3264192 
  387400   0.00202362            0            0            0   0.70918631   0.49562061   -4.3321516   -4.3232643 
  387500  0.001981443            0            0            0   0.70918631   0.49740457   -4.3321516   -4.3204036 
  387600  0.002056302            0            0            0   0.70918631   0.49617706   -4.3321516   -4.3155918 
  387700 0.0019904618            0            0            0   0.70918631   0.49254397   -4.3321516   -4.3144662 
  387800 0.0020118505            0            0            0   0.70918631   0.49395048   -4.3321516   -4.3168842 
  387900 0.0020843957            0            0            0   0.70918631   0.49006539   -4.3321516   -4.3141777 
  388000 0.0021073699            0            0            0   0.70918631   0.48548152   -4.3321516   -4.3156277 
Loop time of 29.444 on 1 procs for 15000 steps with 3500 atoms

99.8% CPU use with 1 MPI tasks x no OpenMP threads

MPI task timing breakdown:
Section |  min time  |  avg time  |  max time  |%varavg| %total
---------------------------------------------------------------
Pair    | 26.535     | 26.535     | 26.535     |   0.0 | 90.12
Neigh   | 0.13247    | 0.13247    | 0.13247    |   0.0 |  0.45
Comm    | 0.0017462  | 0.0017462  | 0.0017462  |   0.0 |  0.01
Output  | 0.1957     | 0.1957     | 0.1957     |   0.0 |  0.66
Modify  | 2.4478     | 2.4478     | 2.4478     |   0.0 |  8.31
Other   |            | 0.131      |            |       |  0.44

Nlocal:        3500.00 ave        3500 max        3500 min
Histogram: 1 0 0 0 0 0 0 0 0 0
Nghost:        0.00000 ave           0 max           0 min
Histogram: 1 0 0 0 0 0 0 0 0 0
Neighs:        26185.0 ave       26185 max       26185 min
Histogram: 1 0 0 0 0 0 0 0 0 0
FullNghs:      0.00000 ave           0 max           0 min
Histogram: 1 0 0 0 0 0 0 0 0 0

Total # of neighbors = 26185
Ave neighs/atom = 7.4814286
Neighbor list builds = 21
Dangerous builds = 0
Total wall time: 0:06:01
